%NProcShared=4
%Chk=b-carotene-td-wb97xd-tzvp.chk
%Mem=3GB
#n wB97XD/Gen Td(NStates=10)

 b-caroten-td-wb97xd-tzvp

0 1
C         11.99704        0.48168       -0.79927
C        -11.99593       -0.03805        0.90831
C         13.30885       -0.30308       -0.66951
C        -12.86561        1.14976        1.33837
C         13.08269       -1.79045       -0.47004
C        -13.32643        1.99338        0.16476
C         10.98105        0.02888        0.25845
C        -10.93418        0.40500       -0.10937
C         12.31427       -2.01304        0.82031
C        -12.11916        2.56300       -0.56031
C         11.14492       -1.07653        0.99928
C        -11.00658        1.56487       -0.77916
C         11.39650        0.27877       -2.19729
C         12.33008        1.97018       -0.63050
C        -12.87733       -1.13496        0.29272
C        -11.32395       -0.60150        2.16625
C          9.79245        0.89937        0.39894
C         -9.84366       -0.57296       -0.31256
C         10.22349       -1.50386        2.10914
C        -10.01096        2.01591       -1.81317
C          8.52842        0.48596        0.28901
C         -8.53715       -0.31167       -0.24064
C          7.33441        1.32472        0.41357
C         -7.45559       -1.28361       -0.41326
C          7.53324        2.78636        0.68904
C         -7.83438       -2.70711       -0.69993
C          6.13008        0.74229        0.27446
C         -6.18661       -0.85125       -0.30422
C          4.82676        1.37100        0.35903
C         -4.97022       -1.62864       -0.43412
C          3.68269        0.69001        0.20140
C         -3.74947       -1.09080       -0.30442
C          2.34359        1.26369        0.27566
C         -2.47953       -1.80051       -0.41862
C          2.23104        2.73675        0.55345
C         -2.52980       -3.27263       -0.70784
C          1.22470        0.53066        0.10700
C         -1.34080       -1.09819       -0.25840
C          1.14243       -0.89022       -0.16828
C          0.01419       -1.60492       -0.32969
H         13.86851        0.08473        0.18992
H         13.92229       -0.11372       -1.55575
H        -12.28376        1.78174        2.01938
H        -13.71943        0.77410        1.91091
H         14.03509       -2.32506       -0.44253
H         12.51804       -2.20066       -1.31244
H        -13.97988        2.80051        0.50434
H        -13.91704        1.38461       -0.52605
H         12.98488       -1.89571        1.68160
H         11.94562       -3.04287        0.87687
H        -11.71050        3.41115        0.00495
H        -12.41741        2.97557       -1.52894
H         11.20768       -0.77629       -2.40458
H         12.07686        0.66182       -2.96311
H         10.44605        0.80782       -2.29328
H         12.63883        2.19295        0.39412
H         11.48571        2.61372       -0.88365
H         13.15457        2.23825       -1.29619
H        -13.42079       -0.77195       -0.58116
H        -13.60579       -1.48990        1.02705
H        -12.28447       -1.99627       -0.02211
H        -10.62363        0.12083        2.59218
H        -10.76999       -1.51906        1.95985
H        -12.08109       -0.82900        2.92166
H          9.98171        1.95582        0.56759
H        -10.15667       -1.60122       -0.47959
H          9.54146       -0.71723        2.42364
H         10.81559       -1.81973        2.97342
H          9.62591       -2.37039        1.80909
H         -9.33130        1.22625       -2.12361
H         -9.40998        2.84919       -1.43420
H        -10.53678        2.38910       -2.69623
H          8.34327       -0.56612        0.08378
H         -8.22101        0.70613       -0.02471
H          8.08095        2.92954        1.62389
H          6.59451        3.32979        0.76352
H          8.12667        3.24779       -0.10461
H         -8.42544       -2.76999       -1.61712
H         -8.45112       -3.10950        0.10811
H         -6.96883       -3.35521       -0.81373
H          6.11543       -0.32718        0.07450
H         -6.03848        0.20580       -0.09259
H          4.78604        2.43585        0.55851
H         -5.06028       -2.68857       -0.64453
H          3.75887       -0.37407        0.00310
H         -3.67616       -0.02579       -0.09335
H          2.69434        2.99356        1.50979
H          1.18766        3.04814        0.58698
H          2.73673        3.32255       -0.21877
H         -3.04989       -3.45897       -1.65086
H         -3.08317       -3.79696        0.07531
H         -1.54231       -3.72117       -0.77673
H          0.28203        1.06242        0.18490
H         -1.45471       -0.03834       -0.05311
H          2.07505       -1.43548       -0.25467
H          0.13597       -2.66283       -0.53207

H     0
S   3   1.00
     34.0613410              0.60251978D-02
      5.1235746              0.45021094D-01
      1.1646626              0.20189726
S   1   1.00
      0.32723041             1.0000000
S   1   1.00
      0.10307241             1.0000000
P   1   1.00
      0.8000000              1.0000000
****
C     0
S   6   1.00
  13575.3496820              0.22245814352D-03
   2035.2333680              0.17232738252D-02
    463.22562359             0.89255715314D-02
    131.20019598             0.35727984502D-01
     42.853015891            0.11076259931
     15.584185766            0.24295627626
S   2   1.00
      6.2067138508           0.41440263448
      2.5764896527           0.23744968655
S   1   1.00
      0.57696339419          1.0000000
S   1   1.00
      0.22972831358          1.0000000
S   1   1.00
      0.95164440028D-01      1.0000000
P   4   1.00
     34.697232244            0.53333657805D-02
      7.9582622826           0.35864109092D-01
      2.3780826883           0.14215873329
      0.81433208183          0.34270471845
P   1   1.00
      0.28887547253           .46445822433
P   1   1.00
      0.10056823671           .24955789874
D   1   1.00
      1.09700000             1.0000000
D   1   1.00
      0.31800000             1.0000000
F   1   1.00
      0.76100000             1.0000000
****

