%NProcShared=4
%Chk=b-carotene-td-wb97xd-tzvpp.chk
%Mem=6GB
#n wB97XD/Gen Td(NStates=10)

 b-caroten-td-wb97xd-tzvpp

0 1
C         11.98811        0.49301       -0.79800
C        -11.98882       -0.03100        0.89070
C         13.29318       -0.30689       -0.68642
C        -12.84617        1.16475        1.32577
C         13.05279       -1.79504       -0.51223
C        -13.29974        2.01616        0.15514
C         10.97023        0.03052        0.25247
C        -10.92118        0.40632       -0.12228
C         12.28528       -2.03200        0.77610
C        -12.08793        2.57342       -0.57232
C         11.12593       -1.08941        0.97404
C        -10.98455        1.56749       -0.79190
C         11.37813        0.32073       -2.19768
C         12.33703        1.97607       -0.60260
C        -12.88022       -1.11674        0.26599
C        -11.32268       -0.60779        2.14731
C          9.78973        0.90215        0.40244
C         -9.83885       -0.57457       -0.31842
C         10.20269       -1.52553        2.07748
C         -9.98326        2.00870       -1.82319
C          8.52303        0.49198        0.29224
C         -8.53000       -0.31779       -0.24364
C          7.33471        1.32792        0.42233
C         -7.45463       -1.28971       -0.40621
C          7.53311        2.78815        0.70308
C         -7.83379       -2.71436       -0.68428
C          6.12727        0.74499        0.28324
C         -6.18226       -0.85794       -0.29686
C          4.82934        1.36973        0.37226
C         -4.97167       -1.63390       -0.41889
C          3.68179        0.68871        0.21565
C         -3.74683       -1.09774       -0.29058
C          2.34799        1.25872        0.29372
C         -2.48319       -1.80777       -0.39877
C          2.23093        2.73121        0.57254
C         -2.53197       -3.28128       -0.67969
C          1.22592        0.52342        0.12720
C         -1.34078       -1.10427       -0.24075
C          1.14030       -0.89110       -0.14599
C          0.00881       -1.60714       -0.30788
H         13.85833        0.05951        0.17665
H         13.90472       -0.10916       -1.57001
H        -12.25762        1.78784        2.00649
H        -13.70231        0.79738        1.89700
H         13.99886       -2.33819       -0.49571
H         12.48293       -2.18472       -1.35876
H        -13.94113        2.82942        0.49824
H        -13.89881        1.41721       -0.53435
H         12.95884       -1.93580        1.63624
H         11.90861       -3.05827        0.81579
H        -11.67103        3.41676       -0.00809
H        -12.38494        2.98909       -1.53846
H         11.16598       -0.72616       -2.41575
H         12.06269        0.69844       -2.96039
H         10.43966        0.86994       -2.28151
H         12.64647        2.17603        0.42489
H         11.50103        2.63217       -0.84497
H         13.16374        2.24629       -1.26239
H        -13.40336       -0.74796       -0.61592
H        -13.62367       -1.45674        0.99026
H        -12.29716       -1.98724       -0.03682
H        -10.61719        0.10555        2.57608
H        -10.77720       -1.52753        1.93580
H        -12.08156       -0.83260        2.89979
H          9.98317        1.95557        0.57140
H        -10.15604       -1.60107       -0.47456
H          9.53162       -0.73774        2.40821
H         10.79173       -1.86532        2.93336
H          9.59349       -2.37735        1.76266
H         -9.31744        1.21066       -2.13860
H         -9.36765        2.82765       -1.43952
H        -10.50173        2.39635       -2.70308
H          8.33972       -0.55730        0.08186
H         -8.21517        0.69925       -0.03231
H          8.08374        2.92767        1.63564
H          6.59678        3.33238        0.78350
H          8.12323        3.25276       -0.08983
H         -8.42263       -2.78274       -1.60134
H         -8.45213       -3.11053        0.12426
H         -6.97127       -3.36541       -0.79229
H          6.11464       -0.32226        0.07976
H         -6.03544        0.19909       -0.09236
H          4.78823        2.43228        0.57422
H         -5.06235       -2.69325       -0.62275
H          3.75914       -0.37312        0.01469
H         -3.67358       -0.03308       -0.08611
H          2.69473        2.98908        1.52730
H          1.18844        3.04135        0.60854
H          2.73313        3.31889       -0.19921
H         -3.04846       -3.47346       -1.62240
H         -3.08708       -3.80111        0.10388
H         -1.54615       -3.73144       -0.74304
H          0.28610        1.05650        0.20797
H         -1.45668       -0.04505       -0.04173
H          2.06921       -1.43998       -0.23123
H          0.13407       -2.66362       -0.50788

@/home/padawan/israel-mol/basis-set/tzvpp.gbs

