%NProcShared=4
%Chk=neoxanthin-s1-geom-freq.chk
%Mem=6GB
#n CAM-B3LYP/6-31G(d,p) Opt=Restart Freq=savenormalmodes Td

 neoxanthin-s1-geom-freq

0 1
O         11.62072        0.84103       -0.86143
O         13.08799       -2.47421        1.24667
O        -10.43627       -0.72734        2.23354
O        -14.38581       -1.20328        0.44453
C         10.89420       -0.30099       -0.38723
C         11.86344        0.42300        0.48776
C         11.28256       -1.59716       -1.12929
C         13.27204       -0.10789        0.71115
C         12.81388       -1.79060       -1.10226
C         13.48802       -1.54385        0.24404
C         11.39986        1.40727        1.53448
C          9.42622       -0.04084       -0.25439
C         10.55988       -2.82459       -0.55154
C         10.85030       -1.43974       -2.59647
C          8.67855       -0.37578        0.79946
C          7.23469       -0.13464        0.95226
C          6.50475       -1.17194        1.76328
C          6.65246        0.95005        0.40131
C          5.24767        1.29604        0.41951
C        -11.90723       -0.31118       -1.28258
C        -11.54353       -0.49021        1.36728
C        -12.59765       -1.68704       -1.17973
C        -13.24612       -2.01207        0.16440
C        -12.25365       -1.84648        1.30332
C        -11.04021       -0.08067       -0.03519
C        -11.03511       -0.31008       -2.54399
C        -12.94415        0.81950       -1.43099
C        -12.41690        0.59852        1.99750
C          4.76307        2.41811       -0.14371
C         -9.85965        0.47194       -0.10506
C          3.35985        2.82896       -0.20105
C         -8.64747        0.98250       -0.08659
C          3.13867        4.31657       -0.28713
C          2.36067        1.91724       -0.19214
C         -7.40778        0.19718       -0.13734
C         -7.56082       -1.29703       -0.13691
C         -6.22891        0.85509       -0.15327
C          0.94124        2.17117       -0.19220
C         -4.90218        0.28331       -0.18187
C          0.01218        1.19182       -0.20755
C         -3.78304        1.03401       -0.18517
C         -1.40589        1.44568       -0.19748
C         -2.41537        0.54166       -0.20483
C         -2.20321       -0.94700       -0.22859
H         13.53349       -0.05124        1.77249
H         13.95028        0.56770        0.17872
H         13.04344       -2.80693       -1.43702
H         13.26759       -1.10324       -1.82412
H         14.56230       -1.71756        0.12712
H         11.26461        0.91594        2.50316
H         12.15824        2.18644        1.65977
H         10.46106        1.87808        1.24885
H          8.96547        0.43926       -1.11493
H          9.47724       -2.72288       -0.64452
H         10.86447       -3.71736       -1.10463
H         10.79480       -3.01015        0.49714
H         11.27294       -0.52877       -3.02703
H         11.19969       -2.29308       -3.18552
H          9.76161       -1.39595       -2.69171
H         12.24443       -2.17952        1.60728
H          9.15598       -0.90398        1.62580
H          5.46591       -0.90949        1.95945
H          6.51952       -2.14404        1.25812
H          6.99959       -1.31346        2.73041
H          7.29871        1.65875       -0.11270
H          4.55677        0.62139        0.91605
H        -13.34347       -1.77253       -1.98147
H        -11.85238       -2.46773       -1.37423
H        -13.55497       -3.06817        0.14369
H        -12.75332       -2.03382        2.25777
H        -11.47386       -2.60553        1.18979
H        -11.65155       -0.50733       -3.42647
H        -10.54399        0.65575       -2.68397
H        -10.25784       -1.07705       -2.49115
H        -13.65616        0.83668       -0.60845
H        -12.44167        1.78897       -1.48396
H        -13.50806        0.68212       -2.36029
H        -12.63942        0.31216        3.02854
H        -11.87859        1.55134        2.00917
H        -13.35953        0.72795        1.46881
H          5.47761        3.11527       -0.58183
H         -9.88206        0.06455        2.22182
H        -15.01398       -1.31185       -0.27915
H         -8.53567        2.06490       -0.02390
H          2.09930        4.58610       -0.47067
H          3.46007        4.81280        0.63504
H          3.73987        4.74066       -1.09851
H          2.64188        0.86618       -0.19921
H         -6.61224       -1.81833       -0.01382
H         -8.23574       -1.60017        0.66922
H         -8.01621       -1.63721       -1.07329
H         -6.26567        1.94375       -0.14102
H          0.59801        3.20238       -0.16978
H         -4.81483       -0.79816       -0.20081
H          0.35637        0.16087       -0.22463
H         -3.89364        2.11751       -0.16871
H         -1.68619        2.49808       -0.17981
H         -1.14976       -1.22193       -0.24263
H         -2.65964       -1.41627        0.64894
H         -2.67581       -1.39029       -1.11102

