%nproc=4
%Mem=2GB
# td(NStates=1) B3LYP/6-31G(d,p) nosymm

AlQ3Emi Single Point

0 1
Al        -0.630322      -0.988460       0.249594
 O         0.713334      -2.407971       0.118937
 O        -2.014561      -2.068935      -0.353044
 O        -0.946234      -1.332665       2.054529
 C        -0.222556      -0.701157       2.945009
 C        -0.319905      -0.856390       4.327597
 C         0.522418      -0.122431       5.188924
 C         1.471137       0.774080       4.727172
 C         1.606323       0.970647       3.331250
 C         0.754127       0.233431       2.460252
 C         2.525525       1.849325       2.705024
 C         2.557670       1.953597       1.328716
 C         1.670662       1.181426       0.550482
 N         0.795391       0.350991       1.104349
 C         1.317852      -2.478957      -1.010176
 C         2.271493      -3.498402      -1.308268
 C         2.884894      -3.508870      -2.559601
 C         2.569111      -2.531986      -3.500851
 C         1.611403      -1.478828      -3.234997
 C         1.005646      -1.471059      -1.999269
 C         1.264220      -0.455777      -4.186657
 C         0.291765       0.472560      -3.767010
 C        -0.275382       0.414533      -2.508929
 N         0.069538      -0.537791      -1.568023
 C        -3.178865      -1.484903      -0.497113
 C        -4.349107      -2.120083      -0.913846
 C        -5.553604      -1.397943      -1.032122
 C        -5.646127      -0.046019      -0.748707
 C        -3.265612      -0.078657      -0.208213
 C        -4.487000       0.646809      -0.324421
 C        -4.430241       2.025148       0.000831
 C        -3.239725       2.595140       0.402856
 C        -2.081342       1.796766       0.483158
 N        -2.096149       0.503834       0.184301
 H        -4.314668      -3.180522      -1.138870
 H        -6.443520      -1.930650      -1.357125
 H        -6.587110       0.486028      -0.844812
 H        -5.333380       2.625977      -0.068333
 H        -3.178201       3.647362       0.658315
 H        -1.130209       2.216207       0.793592
 H        -1.048103      -1.554008       4.726853
 H         0.418759      -0.273449       6.260293
 H         2.107595       1.322625       5.414115
 H         3.203744       2.437239       3.318202
 H         3.255543       2.619814       0.833149
 H         1.667629       1.235888      -0.532960
 H         2.482761      -4.242012      -0.548137
 H         3.608080      -4.279535      -2.804984
 H         3.051032      -2.551498      -4.474048
 H        -1.032309       1.127928      -2.205195
 H         1.711493      -0.424201      -5.171147
 H        -0.036702       1.259333      -4.439743




