--Link1--
%Mem=30GB
%CPU=0-29
%OldChk=pheo-a-s0.chk
%Chk=pheo-a-charged.chk
#n wB97XD/Def2TZVP Opt Geom=Checkpoint Guess=Read 

pheo-a-charged

  1  2

