%NProcShared=4
%Mem=8GB
%Chk=b-caroten-s1-geom-freq-TZVP.chk
#n PBE1PBE/Gen Td Opt=Restart Freq=savenormalmodes

 b-caroten-s1-geom-freq-TZVP

0 1
C         12.24821        0.60137       -0.52085
C        -12.20358       -0.06089        0.78395
C         13.51159       -0.28244       -0.39297
C        -13.09181        1.11046        1.26299
C         13.20898       -1.77102       -0.53273
C        -13.38028        2.12875        0.16530
C         11.04937       -0.00551        0.25553
C        -10.99104        0.45732       -0.03478
C         12.27340       -2.19363        0.59671
C        -12.06733        2.72742       -0.33836
C         11.10976       -1.25183        0.81373
C        -10.96702        1.71272       -0.57509
C         11.86483        0.75660       -2.01185
C         12.61831        1.99730        0.03659
C        -13.03919       -1.03096       -0.08645
C        -11.72692       -0.81499        2.04681
C          9.87176        0.85360        0.33705
C         -9.92778       -0.52648       -0.21874
C         10.06915       -1.82121        1.74691
C         -9.86580        2.22823       -1.47017
C          8.55986        0.46182        0.28592
C         -8.57579       -0.31099       -0.22519
C          7.41512        1.32353        0.34794
C         -7.55964       -1.31163       -0.38552
C          7.62195        2.80557        0.53685
C         -7.96865       -2.74268       -0.62840
C          6.15456        0.75123        0.22786
C         -6.23116       -0.91478       -0.30504
C          4.89348        1.38558        0.25829
C         -5.06628       -1.70499       -0.42200
C          3.69661        0.69376        0.12576
C         -3.78734       -1.17519       -0.32068
C          2.39887        1.25746        0.14963
C         -2.56315       -1.88060       -0.41961
C          2.24961        2.75041        0.34140
C         -2.58830       -3.37079       -0.66275
C          1.22637        0.49376        0.00393
C         -1.37000       -1.15770       -0.28247
C          1.12209       -0.89177       -0.19643
C         -0.05453       -1.64339       -0.33307
H         13.96980       -0.11130        0.59113
H         14.24691        0.04395       -1.13875
H        -12.58447        1.62173        2.09274
H        -14.02383        0.70230        1.67394
H         14.13269       -2.36035       -0.50463
H         12.73775       -1.97322       -1.50237
H        -14.03999        2.92128        0.53706
H        -13.90966        1.64919       -0.66681
H         12.84016       -2.28075        1.53893
H         11.87635       -3.20303        0.41342
H        -11.70020        3.47312        0.38722
H        -12.23775        3.29311       -1.26375
H         11.66866       -0.21240       -2.48109
H         12.67173        1.24737       -2.56885
H         10.95915        1.36076       -2.12163
H         12.77163        1.96413        1.12036
H         11.86009        2.75517       -0.17896
H         13.55163        2.33955       -0.42466
H        -13.44936       -0.53186       -0.96895
H        -13.87434       -1.44046        0.49391
H        -12.44009       -1.87669       -0.43835
H        -11.07269       -0.18423        2.65732
H        -11.17675       -1.72834        1.80522
H        -12.59007       -1.10025        2.65949
H         10.06409        1.92241        0.36546
H        -10.26034       -1.56071       -0.27963
H          9.42571       -1.05628        2.18344
H         10.56600       -2.36383        2.56213
H          9.42439       -2.55598        1.24401
H         -9.27760        1.42776       -1.92060
H         -9.17131        2.88364       -0.92481
H        -10.29136        2.83966       -2.27507
H          8.34229       -0.59524        0.15223
H         -8.21323        0.70003       -0.05602
H          8.18780        3.00961        1.45373
H          6.68299        3.35648        0.59743
H          8.20102        3.23040       -0.29306
H         -8.61199       -2.82276       -1.51272
H         -8.54423       -3.13716        0.21885
H         -7.11421       -3.40269       -0.78021
H          6.13270       -0.33095        0.09305
H         -6.06057        0.14777       -0.12681
H          4.85564        2.46273        0.39122
H         -5.17218       -2.77169       -0.59591
H          3.77511       -0.38319       -0.00692
H         -3.71178       -0.10187       -0.14381
H          2.69478        3.08190        1.28772
H          1.19787        3.04681        0.34650
H          2.75006        3.31119       -0.45787
H         -3.13828       -3.60886       -1.58095
H         -3.09384       -3.89506        0.15739
H         -1.58975       -3.79730       -0.75964
H          0.29595        1.05527        0.05120
H         -1.49506       -0.08954       -0.11333
H          2.04515       -1.46283       -0.25807
H          0.08727       -2.70899       -0.49071

H     0
S   3   1.00
     34.0613410              0.60251978D-02
      5.1235746              0.45021094D-01
      1.1646626              0.20189726
S   1   1.00
      0.32723041             1.0000000
S   1   1.00
      0.10307241             1.0000000
P   1   1.00
      0.8000000              1.0000000
****
C     0
S   6   1.00
  13575.3496820              0.22245814352D-03
   2035.2333680              0.17232738252D-02
    463.22562359             0.89255715314D-02
    131.20019598             0.35727984502D-01
     42.853015891            0.11076259931
     15.584185766            0.24295627626
S   2   1.00
      6.2067138508           0.41440263448
      2.5764896527           0.23744968655
S   1   1.00
      0.57696339419          1.0000000
S   1   1.00
      0.22972831358          1.0000000
S   1   1.00
      0.95164440028D-01      1.0000000
P   4   1.00
     34.697232244            0.53333657805D-02
      7.9582622826           0.35864109092D-01
      2.3780826883           0.14215873329
      0.81433208183          0.34270471845
P   1   1.00
      0.28887547253           .46445822433
P   1   1.00
      0.10056823671           .24955789874
D   1   1.00
      1.09700000             1.0000000
D   1   1.00
      0.31800000             1.0000000
F   1   1.00
      0.76100000             1.0000000
****

