%nproc=10
%mem=10GB
# wB97XD/Def2TZVP iop(3/107=0050000000,3/108=0050000000) opt

TITLE

0 1
 6  12.00946300000000  0.50665400000000 -0.79223100000000
 6 -12.00846900000000 -0.02512700000000  0.87969400000000
 6  13.31167200000000 -0.30319100000000 -0.68821700000000
 6 -12.86775500000000  1.17399000000000  1.30943800000000
 6  13.06374200000000 -1.79417800000000 -0.53859700000000
 6 -13.30840200000000  2.03093400000000  0.13604800000000
 6  10.97969100000000  0.02837300000000  0.24312800000000
 6 -10.92924500000000  0.41079600000000 -0.12521100000000
 6  12.28769300000000 -2.04862100000000  0.74289000000000
 6 -12.08793500000000  2.58459000000000 -0.58270200000000
 6  11.12943700000000 -1.10510300000000  0.95012100000000
 6 -10.98544100000000  1.57478200000000 -0.79619300000000
 6  11.40744200000000  0.36525900000000 -2.20125800000000
 6  12.36668500000000  1.98563400000000 -0.56482500000000
 6 -12.89898600000000 -1.10896200000000  0.24488900000000
 6 -11.35412300000000 -0.60569500000000  2.14341200000000
 6  9.80028200000000  0.89929200000000  0.39679200000000
 6 -9.84936500000000 -0.57293000000000 -0.31488900000000
 6  10.20068600000000 -1.55392500000000  2.04526900000000
 6 -9.97726700000000  2.01136700000000 -1.82422700000000
 6  8.52837900000000  0.49231200000000  0.29327500000000
 6 -8.53589200000000 -0.32159000000000 -0.24237300000000
 6  7.34398700000000  1.32946400000000  0.42802200000000
 6 -7.46526000000000 -1.29618300000000 -0.40188000000000
 6  7.54264000000000  2.79032100000000  0.71194800000000
 6 -7.84570000000000 -2.72186000000000 -0.67953300000000
 6  6.13126100000000  0.74737400000000  0.28991500000000
 6 -6.18763800000000 -0.86700500000000 -0.29093500000000
 6  4.83612100000000  1.37081600000000  0.38246800000000
 6 -4.98029200000000 -1.64314100000000 -0.41023000000000
 6  3.68367200000000  0.68981800000000  0.22680700000000
 6 -3.75031900000000 -1.10859100000000 -0.28091700000000
 6  2.35211200000000  1.25737900000000  0.30761200000000
 6 -2.48950700000000 -1.81824400000000 -0.38689800000000
 6  2.22988900000000  2.73064000000000  0.58783400000000
 6 -2.53475800000000 -3.29351500000000 -0.66648800000000
 6  1.22672300000000  0.51828900000000  0.14177300000000
 6 -1.34302600000000 -1.11272700000000 -0.22816300000000
 6  1.13946200000000 -0.89291800000000 -0.13088900000000
 6  0.00453500000000 -1.61191700000000 -0.29352000000000
 1  13.87638700000000  0.04703200000000  0.18284800000000
 1  13.92820200000000 -0.09460500000000 -1.56692600000000
 1 -12.28414200000000  1.79377100000000  1.99868600000000
 1 -13.73146700000000  0.80772700000000  1.87164100000000
 1  14.00828700000000 -2.34205400000000 -0.52579600000000
 1  12.49639700000000 -2.16848900000000 -1.39493700000000
 1 -13.94899300000000  2.84727700000000  0.47653000000000
 1 -13.90615100000000  1.43611800000000 -0.55961000000000
 1  12.95799800000000 -1.96983200000000  1.60874900000000
 1  11.90726500000000 -3.07519000000000  0.76391500000000
 1 -11.67216800000000  3.42723400000000 -0.01443200000000
 1 -12.37735000000000  3.00325700000000 -1.55099100000000
 1  11.19364800000000 -0.67714400000000 -2.44236300000000
 1  12.09834700000000  0.75666500000000 -2.95247300000000
 1  10.47033900000000  0.91914900000000 -2.27983200000000
 1  12.66827000000000  2.16422400000000  0.46975400000000
 1  11.53715900000000  2.65290600000000 -0.80248200000000
 1  13.20184300000000  2.26314500000000 -1.21219700000000
 1 -13.41542900000000 -0.73603700000000 -0.64027700000000
 1 -13.64905500000000 -1.44977000000000  0.96320500000000
 1 -12.31550400000000 -1.98056200000000 -0.05675800000000
 1 -10.65109500000000  0.10625000000000  2.58042400000000
 1 -10.80768000000000 -1.52663700000000  1.93548700000000
 1 -12.12061200000000 -0.83085900000000  2.88929000000000
 1  9.99541800000000  1.95390900000000  0.56123800000000
 1 -10.16989200000000 -1.60026800000000 -0.46435600000000
 1  9.53308500000000 -0.76653500000000  2.38687700000000
 1  10.78652900000000 -1.91011500000000  2.89794400000000
 1  9.58647200000000 -2.39840000000000  1.71716300000000
 1 -9.31501100000000  1.20829700000000 -2.13761200000000
 1 -9.35708800000000  2.82739900000000 -1.43879400000000
 1 -10.49068400000000  2.40254900000000 -2.70677700000000
 1  8.34095000000000 -0.55671200000000  0.08215800000000
 1 -8.21672100000000  0.69537000000000 -0.03391500000000
 1  8.09661200000000  2.92872400000000  1.64378700000000
 1  6.60488900000000  3.33308900000000  0.79722700000000
 1  8.12913300000000  3.25869200000000 -0.08274400000000
 1 -8.43349300000000 -2.79125300000000 -1.59832500000000
 1 -8.46536400000000 -3.11812300000000  0.12921500000000
 1 -6.98224600000000 -3.37339700000000 -0.78582500000000
 1  6.11826300000000 -0.32021700000000  0.08418100000000
 1 -6.03980300000000  0.19083000000000 -0.08728500000000
 1  4.79546600000000  2.43384200000000  0.58632300000000
 1 -5.07224400000000 -2.70334700000000 -0.61330500000000
 1  3.76037100000000 -0.37246900000000  0.02370000000000
 1 -3.67612000000000 -0.04309900000000 -0.07730100000000
 1  2.69378500000000  2.99034200000000  1.54315600000000
 1  1.18548900000000  3.03707100000000  0.62538500000000
 1  2.72888200000000  3.32180400000000 -0.18470300000000
 1 -3.04879500000000 -3.48884700000000 -1.61095700000000
 1 -3.08978300000000 -3.81489000000000  0.11740800000000
 1 -1.54659400000000 -3.74100100000000 -0.72737400000000
 1  0.28654800000000  1.05207400000000  0.22443400000000
 1 -1.46051000000000 -0.05260900000000 -0.03020800000000
 1  2.06852400000000 -1.44322200000000 -0.21600600000000
 1  0.13227700000000 -2.66902000000000 -0.49311500000000

