%nproc=10
%mem=10GB
# wB97XD/Def2TZVP iop(3/107=0106300000,3/108=0106300000)

TITLE

1 2
 6  12.02000600000000  0.50658800000000 -0.80183700000000
 6 -12.01990800000000 -0.01520500000000  0.87837300000000
 6  13.32098500000000 -0.31078000000000 -0.70493800000000
 6 -12.87773900000000  1.19076600000000  1.30043900000000
 6  13.06842200000000 -1.80255600000000 -0.55588400000000
 6 -13.31502400000000  2.04444000000000  0.12148300000000
 6  10.98823500000000  0.02729900000000  0.23539400000000
 6 -10.93626000000000  0.41238700000000 -0.12975600000000
 6  12.29402600000000 -2.05660800000000  0.72846400000000
 6 -12.09170200000000  2.58842100000000 -0.60307200000000
 6  11.13837700000000 -1.10914300000000  0.94160200000000
 6 -10.99130400000000  1.57306600000000 -0.81063400000000
 6  11.41303700000000  0.37472900000000 -2.21253100000000
 6  12.38654800000000  1.98504000000000 -0.56763400000000
 6 -12.91413200000000 -1.10202300000000  0.24743800000000
 6 -11.36847800000000 -0.59045000000000  2.14912800000000
 6  9.81133100000000  0.90080500000000  0.39272900000000
 6 -9.85927500000000 -0.57555700000000 -0.31380000000000
 6  10.21388200000000 -1.55549700000000  2.04334900000000
 6 -9.98523200000000  1.99807800000000 -1.84757000000000
 6  8.53423400000000  0.49890400000000  0.29734200000000
 6 -8.54164900000000 -0.33039900000000 -0.24413600000000
 6  7.35387700000000  1.33841600000000  0.43524500000000
 6 -7.47509100000000 -1.30754400000000 -0.40054400000000
 6  7.55370100000000  2.80065800000000  0.71957100000000
 6 -7.85636700000000 -2.73459300000000 -0.67849500000000
 6  6.13609400000000  0.75721300000000  0.29930300000000
 6 -6.19285800000000 -0.88020400000000 -0.28741700000000
 6  4.84334600000000  1.37924300000000  0.39383800000000
 6 -4.98773900000000 -1.65534500000000 -0.40337400000000
 6  3.68640300000000  0.69797600000000  0.23965600000000
 6 -3.75337700000000 -1.12140900000000 -0.27242900000000
 6  2.35651500000000  1.26221900000000  0.32153900000000
 6 -2.49418300000000 -1.82890000000000 -0.37537500000000
 6  2.22764500000000  2.73681700000000  0.60151400000000
 6 -2.53340800000000 -3.30633500000000 -0.65370600000000
 6  1.22826700000000  0.51892000000000  0.15647500000000
 6 -1.34513800000000 -1.11940300000000 -0.21513200000000
 6  1.13905200000000 -0.88934000000000 -0.11426500000000
 6  0.00148700000000 -1.61227600000000 -0.27746700000000
 1  13.89182900000000  0.03561700000000  0.16296100000000
 1  13.93449600000000 -0.10427200000000 -1.58574100000000
 1 -12.29444600000000  1.81204000000000  1.98774500000000
 1 -13.74354100000000  0.83089400000000  1.86280000000000
 1  14.01135500000000 -2.35294300000000 -0.54566900000000
 1  12.49880100000000 -2.17500700000000 -1.41098000000000
 1 -13.95050800000000  2.86602400000000  0.45841800000000
 1 -13.91738500000000  1.44999900000000 -0.56983300000000
 1  12.96719600000000 -1.98316700000000  1.59227100000000
 1  11.91087300000000 -3.08195700000000  0.74800400000000
 1 -11.67302400000000  3.43408600000000 -0.04191200000000
 1 -12.38114100000000  3.00140000000000 -1.57350000000000
 1  11.19063600000000 -0.66463700000000 -2.45707500000000
 1  12.10453900000000  0.76300800000000 -2.96425300000000
 1  10.48039900000000  0.93569600000000 -2.28763500000000
 1  12.69312400000000  2.15702900000000  0.46612600000000
 1  11.56047900000000  2.65825700000000 -0.79837300000000
 1  13.22033300000000  2.26209900000000 -1.21631300000000
 1 -13.42558600000000 -0.73394500000000 -0.64215600000000
 1 -13.66842900000000 -1.43465400000000  0.96456300000000
 1 -12.33387700000000 -1.97812600000000 -0.04560800000000
 1 -10.66639500000000  0.12266900000000  2.58462700000000
 1 -10.82247400000000 -1.51262400000000  1.94811700000000
 1 -12.13624300000000 -0.81129700000000  2.89444200000000
 1  10.01052200000000  1.95516000000000  0.55059800000000
 1 -10.18385600000000 -1.60217200000000 -0.45577400000000
 1  9.54736200000000 -0.76772800000000  2.38502800000000
 1  10.80317300000000 -1.90711700000000  2.89528600000000
 1  9.59915500000000 -2.40206700000000  1.72244300000000
 1 -9.32068100000000  1.19308900000000 -2.14958900000000
 1 -9.36781700000000  2.82273400000000 -1.47703700000000
 1 -10.50109400000000  2.37279400000000 -2.73565900000000
 1  8.34229600000000 -0.54912300000000  0.08851900000000
 1 -8.21879400000000  0.68553500000000 -0.03939400000000
 1  8.11136900000000  2.93944100000000  1.64883100000000
 1  6.61639000000000  3.34269400000000  0.80982200000000
 1  8.13517000000000  3.27083600000000 -0.07735300000000
 1 -8.44348100000000 -2.80464300000000 -1.59736200000000
 1 -8.47540800000000 -3.13184600000000  0.12984000000000
 1 -6.99326800000000 -3.38603000000000 -0.78480100000000
 1  6.12297900000000 -0.30993700000000  0.09357000000000
 1 -6.04529700000000  0.17738000000000 -0.08458900000000
 1  4.80289100000000  2.44178700000000  0.59777000000000
 1 -5.07978000000000 -2.71525900000000 -0.60539500000000
 1  3.76302500000000 -0.36385100000000  0.03626200000000
 1 -3.68002800000000 -0.05613700000000 -0.06982300000000
 1  2.68966500000000  2.99957200000000  1.55663500000000
 1  1.18243000000000  3.03929000000000  0.63918500000000
 1  2.72319900000000  3.33048300000000 -0.17097100000000
 1 -3.04362800000000 -3.50555900000000 -1.59910600000000
 1 -3.08712300000000 -3.82976800000000  0.12935000000000
 1 -1.54359000000000 -3.74976300000000 -0.71187700000000
 1  0.28883600000000  1.05309300000000  0.23971500000000
 1 -1.46623300000000 -0.05978800000000 -0.01865200000000
 1  2.06711800000000 -1.44096100000000 -0.19844700000000
 1  0.13385900000000 -2.66883700000000 -0.47536300000000

