%nproc=10
%mem=10GB
# wB97XD/Def2TZVP iop(3/107=0000000000,3/108=0000000000)

TITLE

1 2
 6  11.98553800000000  0.49562900000000 -0.80185900000000
 6 -11.98794000000000 -0.02586400000000  0.88743800000000
 6  13.29077600000000 -0.30425600000000 -0.69266000000000
 6 -12.84422500000000  1.17156600000000  1.31982300000000
 6  13.05119800000000 -1.79229900000000 -0.51715300000000
 6 -13.29406500000000  2.02311800000000  0.14797200000000
 6  10.96897100000000  0.03237600000000  0.24947700000000
 6 -10.91878800000000  0.40838200000000 -0.12522000000000
 6  12.28548200000000 -2.02922600000000  0.77208400000000
 6 -12.08038500000000  2.57733100000000 -0.57837200000000
 6  11.12572800000000 -1.08745000000000  0.97086400000000
 6 -10.97899700000000  1.56892300000000 -0.79608900000000
 6  11.37371300000000  0.32425200000000 -2.20074500000000
 6  12.33445100000000  1.97855200000000 -0.60604100000000
 6 -12.88028400000000 -1.11128900000000  0.26377200000000
 6 -11.32359400000000 -0.60156800000000  2.14536200000000
 6  9.78830100000000  0.90339200000000  0.40116400000000
 6 -9.83793700000000 -0.57449500000000 -0.31952400000000
 6  10.20281100000000 -1.52413200000000  2.07430900000000
 6 -9.97535600000000  2.00671300000000 -1.82650600000000
 6  8.52161900000000  0.49321200000000  0.29151000000000
 6 -8.52885700000000 -0.31990000000000 -0.24235600000000
 6  7.33312800000000  1.32846600000000  0.42401400000000
 6 -7.45453600000000 -1.29307500000000 -0.40390600000000
 6  7.53105700000000  2.78825800000000  0.70722000000000
 6 -7.83498600000000 -2.71723000000000 -0.68254200000000
 6  6.12580300000000  0.74541600000000  0.28488300000000
 6 -6.18179800000000 -0.86285700000000 -0.29337800000000
 6  4.82751200000000  1.36889200000000  0.37606100000000
 6 -4.97164500000000 -1.63946800000000 -0.41471500000000
 6  3.68043800000000  0.68719800000000  0.21959200000000
 6 -3.74666200000000 -1.10392300000000 -0.28595600000000
 6  2.34607600000000  1.25550600000000  0.29955000000000
 6 -2.48307000000000 -1.81396300000000 -0.39362200000000
 6  2.22723100000000  2.72757500000000  0.57976100000000
 6 -2.53155500000000 -3.28757000000000 -0.67407100000000
 6  1.22479200000000  0.51896600000000  0.13350800000000
 6 -1.34080200000000 -1.11033100000000 -0.23564400000000
 6  1.14002400000000 -0.89537300000000 -0.14036100000000
 6  0.00910700000000 -1.61216400000000 -0.30256000000000
 1  13.85832600000000  0.06320000000000  0.16943700000000
 1  13.90070300000000 -0.10695500000000 -1.57850100000000
 1 -12.25569700000000  1.79438000000000  2.00214900000000
 1 -13.70290600000000  0.80562400000000  1.88975000000000
 1  13.99833200000000 -2.33531100000000 -0.50155000000000
 1  12.48001700000000 -2.18297000000000 -1.36344100000000
 1 -13.93467700000000  2.83859800000000  0.48996200000000
 1 -13.89393500000000  1.42448900000000 -0.54243600000000
 1  12.96053900000000 -1.93214800000000  1.63203100000000
 1  11.90926100000000 -3.05651900000000  0.81243000000000
 1 -11.66211100000000  3.42096600000000 -0.01394700000000
 1 -12.37594700000000  2.99302700000000 -1.54586800000000
 1  11.16465500000000 -0.72371500000000 -2.42059800000000
 1  12.05632800000000  0.70608200000000 -2.96430200000000
 1  10.43268800000000  0.87101700000000 -2.28170200000000
 1  12.64290400000000  2.17860700000000  0.42259500000000
 1  11.49809500000000  2.63507600000000 -0.84958900000000
 1  13.16258000000000  2.24870300000000 -1.26536700000000
 1 -13.40478400000000 -0.74179700000000 -0.61801000000000
 1 -13.62342600000000 -1.45128400000000  0.98955900000000
 1 -12.29734800000000 -1.98246300000000 -0.04006200000000
 1 -10.61584900000000  0.11140500000000  2.57301300000000
 1 -10.78002900000000 -1.52377500000000  1.93564300000000
 1 -12.08390800000000 -0.82287300000000  2.89859100000000
 1  9.98172400000000  1.95729400000000  0.57215000000000
 1 -10.15689500000000 -1.60097500000000 -0.47744100000000
 1  9.53436600000000 -0.73426000000000  2.40805000000000
 1  10.79262100000000 -1.86841600000000  2.92886300000000
 1  9.58990400000000 -2.37357400000000  1.75748700000000
 1 -9.31263000000000  1.20509500000000 -2.14203900000000
 1 -9.35596400000000  2.82324000000000 -1.44141800000000
 1 -10.49217400000000  2.39742300000000 -2.70698600000000
 1  8.33804600000000 -0.55649200000000  0.07950200000000
 1 -8.21249900000000  0.69729700000000 -0.03008900000000
 1  8.08217700000000  2.92636700000000  1.64061300000000
 1  6.59342500000000  3.33156600000000  0.78889500000000
 1  8.12085400000000  3.25481600000000 -0.08587100000000
 1 -8.42177500000000 -2.78505900000000 -1.60190700000000
 1 -8.45619300000000 -3.11249700000000  0.12530400000000
 1 -6.97196900000000 -3.36928700000000 -0.78802300000000
 1  6.11342000000000 -0.32222500000000  0.07946600000000
 1 -6.03393300000000  0.19470500000000 -0.08842500000000
 1  4.78564800000000  2.43181800000000  0.57968100000000
 1 -5.06281400000000 -2.69947200000000 -0.61872000000000
 1  3.75853600000000 -0.37497300000000  0.01686400000000
 1 -3.67288500000000 -0.03855200000000 -0.08144400000000
 1  2.69155300000000  2.98531000000000  1.53520900000000
 1  1.18341100000000  3.03578000000000  0.61675600000000
 1  2.72821800000000  3.31703500000000 -0.19254100000000
 1 -3.04753500000000 -3.48020100000000 -1.61786500000000
 1 -3.08729600000000 -3.80748700000000  0.11008200000000
 1 -1.54466400000000 -3.73730000000000 -0.73646200000000
 1  0.28381900000000  1.05122700000000  0.21557000000000
 1 -1.45709100000000 -0.05038500000000 -0.03682600000000
 1  2.07002800000000 -1.44374600000000 -0.22573600000000
 1  0.13511400000000 -2.66917700000000 -0.50298800000000

