%nproc=10
%mem=10GB
# wB97XD/Def2TZVP iop(3/107=0050000000,3/108=0050000000)

TITLE

1 2
 6  12.00369300000000  0.49253400000000 -0.86411800000000
 6 -12.01370500000000  0.04109300000000  0.89563800000000
 6  13.30907600000000 -0.32864700000000 -0.78740300000000
 6 -12.85282100000000  1.27788700000000  1.28135100000000
 6  13.06202100000000 -1.81830000000000 -0.58803100000000
 6 -13.30020400000000  2.09311900000000  0.07567700000000
 6  10.99834500000000  0.03709000000000  0.21727500000000
 6 -10.93931800000000  0.41458800000000 -0.15198400000000
 6  12.32082600000000 -2.03869000000000  0.72512500000000
 6 -12.08271100000000  2.58572000000000 -0.69939700000000
 6  11.17011900000000 -1.08252600000000  0.94822000000000
 6 -10.99792100000000  1.54495600000000 -0.88500100000000
 6  11.35339000000000  0.33195600000000 -2.25790000000000
 6  12.38295600000000  1.97914600000000 -0.67184100000000
 6 -12.93369500000000 -1.06418000000000  0.32385800000000
 6 -11.34675300000000 -0.48880900000000  2.18385900000000
 6  9.82561300000000  0.91804400000000  0.39040000000000
 6 -9.87387600000000 -0.59331300000000 -0.31650200000000
 6  10.27938500000000 -1.49805600000000  2.09386200000000
 6 -10.01341400000000  1.90916700000000 -1.96967700000000
 6  8.54188800000000  0.52558300000000  0.30808500000000
 6 -8.55023200000000 -0.36524100000000 -0.25041300000000
 6  7.36423800000000  1.36712500000000  0.45922700000000
 6 -7.49066000000000 -1.35229300000000 -0.39289600000000
 6  7.56458500000000  2.83114100000000  0.75261300000000
 6 -7.87746200000000 -2.78315400000000 -0.66248700000000
 6  6.14130500000000  0.78527700000000  0.32635300000000
 6 -6.20220300000000 -0.92945200000000 -0.27713500000000
 6  4.84776900000000  1.40037600000000  0.42979100000000
 6 -4.99798600000000 -1.70425400000000 -0.38147700000000
 6  3.68749300000000  0.71536800000000  0.27728700000000
 6 -3.75892800000000 -1.16947600000000 -0.24873300000000
 6  2.35528200000000  1.26780500000000  0.36478500000000
 6 -2.49761900000000 -1.87058600000000 -0.34187200000000
 6  2.20872400000000  2.74423500000000  0.64834800000000
 6 -2.52182700000000 -3.35339600000000 -0.61356200000000
 6  1.22693800000000  0.51372000000000  0.20124200000000
 6 -1.34939100000000 -1.14953200000000 -0.17926600000000
 6  1.13802100000000 -0.89206500000000 -0.06771600000000
 6  0.00067400000000 -1.62524800000000 -0.23303800000000
 1  13.90989200000000  0.03978500000000  0.04914300000000
 1  13.89425000000000 -0.15001000000000 -1.69224500000000
 1 -12.25352500000000  1.91799600000000  1.93495800000000
 1 -13.71443400000000  0.95411900000000  1.86991500000000
 1  14.00649600000000 -2.36587300000000 -0.58598000000000
 1  12.47366000000000 -2.21775200000000 -1.41661100000000
 1 -13.91181900000000  2.93975600000000  0.39385200000000
 1 -13.93051300000000  1.48587300000000 -0.57700900000000
 1  13.01763100000000 -1.94718700000000  1.56733100000000
 1  11.93860300000000 -3.06257400000000  0.77871600000000
 1 -11.64077500000000  3.44914900000000 -0.18642200000000
 1 -12.38881800000000  2.95999800000000 -1.67965600000000
 1  11.11297000000000 -0.70948400000000 -2.47064300000000
 1  12.02574900000000  0.69258500000000 -3.03913900000000
 1  10.42597900000000  0.90088600000000 -2.32249800000000
 1  12.72478600000000  2.17217500000000  0.34622600000000
 1  11.55228000000000  2.65020000000000 -0.88753500000000
 1  13.19440600000000  2.24220300000000 -1.35268400000000
 1 -13.44665100000000 -0.73303800000000 -0.57829800000000
 1 -13.68768000000000 -1.34954900000000  1.06030900000000
 1 -12.37191100000000 -1.96309800000000  0.07005400000000
 1 -10.63262300000000  0.23367900000000  2.58055800000000
 1 -10.81259000000000 -1.42303900000000  2.01465900000000
 1 -12.10357100000000 -0.67192300000000  2.94931900000000
 1  10.03410900000000  1.96955200000000  0.54760200000000
 1 -10.21284300000000 -1.61627800000000 -0.44046800000000
 1  9.61128700000000 -0.70708700000000  2.42189000000000
 1  10.89449600000000 -1.80510600000000  2.94430000000000
 1  9.66941000000000 -2.36531400000000  1.82504500000000
 1 -9.34205500000000  1.09535700000000 -2.22562700000000
 1 -9.40406500000000  2.76796000000000 -1.67204400000000
 1 -10.54951700000000  2.20929500000000 -2.87376400000000
 1  8.34344500000000 -0.51976500000000  0.09788500000000
 1 -8.21771800000000  0.64944200000000 -0.06114900000000
 1  8.13158900000000  2.96584800000000  1.67621700000000
 1  6.62775100000000  3.36971700000000  0.85871000000000
 1  8.13304900000000  3.31052000000000 -0.04742600000000
 1 -8.46397800000000 -2.85836800000000 -1.58073500000000
 1 -8.49554900000000 -3.17567100000000  0.14809500000000
 1 -7.01701100000000 -3.43744800000000 -0.76564100000000
 1  6.13036200000000 -0.27985100000000  0.11467500000000
 1 -6.05401000000000  0.12863800000000 -0.08221400000000
 1  4.80440100000000  2.46058500000000  0.63862200000000
 1 -5.08927100000000 -2.76427500000000 -0.57646800000000
 1  3.76785300000000 -0.34420000000000  0.06865800000000
 1 -3.68921500000000 -0.10362900000000 -0.05266100000000
 1  2.66598100000000  3.01152000000000  1.60397300000000
 1  1.16088500000000  3.03545200000000  0.68728100000000
 1  2.69521200000000  3.34627700000000 -0.12271700000000
 1 -3.02395100000000 -3.56362700000000 -1.56029700000000
 1 -3.07183200000000 -3.87955900000000  0.16954300000000
 1 -1.52809600000000 -3.78722100000000 -0.66510300000000
 1  0.28688800000000  1.04435700000000  0.28717900000000
 1 -1.48144300000000 -0.09110200000000  0.01126200000000
 1  2.06611900000000 -1.44297000000000 -0.14920600000000
 1  0.14622500000000 -2.68020300000000 -0.42701900000000

