%nproc=4
%Mem=2GB
# td(NStates=1) B3LYP/SVP nosymm

phycocyanobilin-abs Single Point

0 1
O  -4.62669557  -4.78664307   1.88042278
O   2.94259810  -4.60174446   1.45110878
O   7.22102773  -1.39542740   1.91264764
O   3.80401283  -3.12965893  -0.04340787
O   7.69742792  -0.53556622  -0.11254113
O  -3.01376859   2.48293958  -0.24622402
N  -0.34854397  -0.56315051  -0.63308313
N   1.55852447   1.77012338  -0.50988778
N  -3.50584088  -3.16548072   0.60254003
N  -0.78964641   2.87370420  -0.13500764
C   0.61147411  -2.44322624  -1.27770199
C   0.90141541  -1.13349327  -0.89630122
C  -0.83329736  -2.67165230  -1.26179428
C  -1.39076615  -1.40769305  -0.74837745
C   3.82192302   1.37088906  -0.34800797
C   2.49269631   0.77166161  -0.62884940
C   2.19626309  -0.55437062  -0.89246088
C   3.59332330   2.70911785  -0.06372214
C   1.60421823  -3.42416483  -1.90597710
C  -5.63965874  -2.60166283   1.29269278
C  -3.70597762  -1.91881897   0.01584234
C   2.16069558   2.92388828  -0.13005276
C  -5.04976747  -1.49701475   0.38760611
C   5.12540812   0.65853330  -0.45647518
C  -2.68713895  -1.10108724  -0.29832856
C  -1.58484433  -3.77698479  -1.61502256
C  -4.62330601  -3.67764118   1.33268590
C   2.02220390  -4.56348043  -0.87833835
C   5.48312008  -0.02446245   0.84879238
C   4.64491277   3.72303117   0.28981424
C   1.35546336   4.05421398   0.25288042
C  -7.01481927  -3.14214192   0.97594187
C  -5.74341605  -0.57620065  -0.22409455
C  -0.05366939   4.02888146   0.13005007
C  -0.90662212   5.07438947   0.54464250
C  -2.14984489   4.53640766   0.39975657
C   2.97809460  -3.98715605   0.20506858
C  -5.43042043   0.43909604  -1.29818975
C   6.85155821  -0.73226560   0.81597702
C  -3.54291989   5.37078057   0.57201476
C  -2.08243340   3.18986490  -0.02947211
C  -0.48712913   6.43980802   0.90151638
C  -4.20321496   5.73599677  -0.72147916
H  -0.56971440   0.22110917   0.08596091
H   3.09575393  -1.09843141  -1.05724704
H   2.41908263  -2.90106997  -2.47983742
H   1.17055104  -3.80370557  -2.77580840
H  -5.52218987  -2.16533503   2.19887023
H   5.17405703  -0.17845003  -1.29650679
H   5.98707485   1.35630438  -0.85473702
H  -2.95023622  -0.20433559  -0.41140290
H   0.43755452   1.71810529  -0.47031211
H  -1.53874478  -4.62186149  -0.72709289
H  -2.69137516  -3.58168063  -1.91024003
H  -1.09303670  -4.00926419  -2.63489931
H  -2.52391730  -3.55044156   0.52803610
H   1.26793135  -5.17729991  -0.65893155
H   2.67934704  -5.32468109  -1.37716453
H   4.75211513  -1.02458702   1.03130684
H   5.71649575   0.63305541   1.77816857
H   4.54248686   4.89059230   0.02467987
H   5.61597663   3.41751221  -0.27296032
H   4.78060266   3.71825180   1.35685797
H   1.83795262   5.05366931   0.62159167
H  -7.74591659  -2.45734660   1.01710795
H  -7.12259711  -3.95374851   1.58827950
H  -6.91457866  -3.64332278  -0.09310097
H  -6.74299671  -0.63414569   0.33356190
H  -5.07502888   1.36093540  -0.72488612
H  -6.35456498   0.85271895  -1.97378204
H  -4.59829437  -0.08266953  -1.94976278
H  -3.36112233   6.43728575   1.06577464
H  -4.37229395   4.80395208   0.87349970
H  -0.16558627   6.55784009   1.86123401
H  -1.30624555   7.43551817   0.54660333
H   0.54009569   6.73150341   0.21451494
H  -3.54518393   6.22928497  -1.51050321
H  -5.14897634   6.55005733  -0.35219457
H  -4.56902144   4.80178393  -1.18742424
H   3.66884802  -4.21613830   1.93130462
H   8.20006906  -1.57181514   1.77033905




