%nproc=4
%Mem=2GB
# td(NStates=1) B3LYP/SVP nosymm

phycocyanobilin-abs Single Point

0 1
O  -4.51879200  -4.72918800   1.88636400
O   2.93401900  -4.83450800   1.29068200
O   7.05618600  -1.51458900   1.84779500
O   3.75267200  -3.13874800   0.08141600
O   7.61248000  -0.60620700  -0.12430700
O  -3.01671200   2.47602500  -0.24095400
N  -0.28618300  -0.57650200  -0.59363800
N   1.55317300   1.79621200  -0.37337900
N  -3.43057000  -3.12953200   0.63528700
N  -0.74597100   2.92581800  -0.10976100
C   0.64767600  -2.46561700  -1.36916900
C   0.93066200  -1.14048900  -0.94444700
C  -0.74674900  -2.67110600  -1.25800600
C  -1.30893800  -1.47358100  -0.74534100
C   3.79058700   1.42514700  -0.34783600
C   2.49307000   0.80668200  -0.57441400
C   2.19995700  -0.50854200  -0.87755000
C   3.57163100   2.74991800  -0.00227100
C   1.63847500  -3.46734200  -1.89799000
C  -5.58664800  -2.57090400   1.35060000
C  -3.63937100  -1.84938000   0.11215000
C   2.13739800   2.96571800  -0.02523000
C  -5.05803700  -1.52496800   0.37361100
C   5.10521900   0.70330000  -0.42943600
C  -2.67037800  -1.07228400  -0.45585600
C  -1.50062300  -3.87497700  -1.74756300
C  -4.49533200  -3.64494300   1.34885400
C   2.04524000  -4.55780300  -0.89144200
C   5.42123700  -0.14936100   0.80893900
C   4.57213800   3.80768700   0.34816200
C   1.34758600   4.10592500   0.24880500
C  -6.97869400  -3.14620200   1.09533900
C  -5.81397500  -0.56270100  -0.19525600
C  -0.05011000   4.04328400   0.20374400
C  -0.97038300   5.18907000   0.49371400
C  -2.22673800   4.70877200   0.34597100
C   2.99158700  -4.07380900   0.18601000
C  -5.42339200   0.43771400  -1.23933000
C   6.80433800  -0.75715900   0.75877400
C  -3.56240700   5.36701800   0.48184900
C  -2.08563700   3.24808700  -0.03924800
C  -0.50862500   6.56132000   0.86910200
C  -4.22463100   5.67595100  -0.87224300
H  -0.43435100   0.33294400  -0.16446700
H   3.04985400  -1.16997900  -1.04491400
H   2.54749100  -2.96293100  -2.25565300
H   1.20220700  -3.97082400  -2.77633500
H  -5.56193800  -2.15610900   2.37839500
H   5.12689800   0.05283500  -1.31847000
H   5.92034400   1.42690700  -0.57700400
H  -2.89904300  -0.01496200  -0.61094400
H   0.51668300   1.83817000  -0.49527900
H  -1.52408800  -4.70895800  -1.02194300
H  -2.54370300  -3.62298000  -1.98679800
H  -1.04048900  -4.27825600  -2.66397000
H  -2.53242200  -3.59851600   0.62753000
H   1.17193300  -5.02517500  -0.41282500
H   2.57814200  -5.37291500  -1.41486100
H   4.70579000  -0.97948900   0.92413800
H   5.34800400   0.44563400   1.73529300
H   4.44479700   4.70532600  -0.28017300
H   5.60377200   3.45280800   0.21476800
H   4.46582600   4.13491900   1.39696100
H   1.84168000   5.04070400   0.51213100
H  -7.76228400  -2.39005500   1.25306000
H  -7.16355700  -3.98234100   1.78632100
H  -7.06816000  -3.52236500   0.06410800
H  -6.85658300  -0.51668700   0.14072100
H  -4.92158200   1.31803100  -0.80151900
H  -6.31170300   0.79371700  -1.78321500
H  -4.71504500   0.01153800  -1.96787300
H  -3.47120700   6.29344200   1.07296000
H  -4.22322500   4.68867800   1.04862200
H   0.12434700   6.54040100   1.77267500
H  -1.35616700   7.23304500   1.06743600
H   0.09812400   7.01499500   0.06665800
H  -3.61704200   6.38116900  -1.46183900
H  -5.22176900   6.12259000  -0.72858300
H  -4.34478900   4.75507700  -1.46261600
H   3.59693500  -4.48769800   1.91363000
H   7.95755300  -1.86347700   1.73837400




