%nproc=4
%Mem=2GB
# td(NStates=1) B3LYP/SVP nosymm

phycocyanobilin-abs Single Point

0 1
O  -4.42917601  -4.60433513   2.08314662
O   3.22369992  -4.92382856   1.26130752
O   7.01539131  -1.58872594   1.71588830
O   3.78807177  -3.23456105  -0.00512406
O   7.76985948  -0.47597122  -0.16141519
O  -3.05774433   2.46289967  -0.38272028
N  -0.25582833  -0.56776909  -0.50498682
N   1.58537221   1.84093730  -0.38192356
N  -3.42981442  -3.07964111   0.62818425
N  -0.82151391   2.88448920  -0.11648945
C   0.65622930  -2.48737861  -1.36414833
C   0.94756599  -1.06947468  -1.08627144
C  -0.74099875  -2.56544785  -1.08946080
C  -1.30334892  -1.43010116  -0.65957464
C   3.81919799   1.36084820  -0.23171580
C   2.53341201   0.85088149  -0.55185679
C   2.17718299  -0.45492130  -0.92104323
C   3.53108155   2.74452145   0.17832107
C   1.50422099  -3.51542158  -1.95511035
C  -5.60719065  -2.50923591   1.36130626
C  -3.57332267  -1.80735097   0.07468528
C   2.10988022   2.93848461   0.09256633
C  -5.07069641  -1.46237307   0.36024670
C   5.07563263   0.70556395  -0.43516836
C  -2.69468197  -1.04346785  -0.48214291
C  -1.54415086  -3.84079216  -1.80001691
C  -4.49952068  -3.56124964   1.42192444
C   1.98587211  -4.60496800  -0.91231077
C   5.37479512  -0.27860051   0.77540938
C   4.66064823   3.73559768   0.66830569
C   1.31857124   4.02914335   0.35731001
C  -6.97746169  -3.09924894   1.15589605
C  -5.75483374  -0.48454021  -0.26504935
C  -0.06654073   4.06532726   0.20873795
C  -1.01906607   5.16207286   0.58750362
C  -2.25617830   4.70789437   0.36420907
C   2.99449689  -4.16245361   0.17746751
C  -5.46134862   0.55680539  -1.30338993
C   6.87558037  -0.75892112   0.65891557
C  -3.61413301   5.32613077   0.33821049
C  -2.19475093   3.25731783  -0.10869592
C  -0.58606896   6.54895135   0.87413032
C  -4.26662159   5.48078715  -1.11111086
H  -0.41929668   0.45659814  -0.29593125
H   3.13587290  -1.21397215  -1.04009474
H   2.37682051  -2.96458276  -2.22077998
H   0.97268928  -3.94902967  -2.82308029
H  -5.79502818  -2.09007342   2.31101384
H   5.19859119   0.22033542  -1.57697976
H   5.73276879   1.61515485  -0.65841317
H  -2.85325599  -0.09152630  -0.85926625
H   0.46454775   1.69329199  -0.55400228
H  -1.44879931  -4.69634008  -1.13341110
H  -2.47345848  -3.52818155  -2.11844182
H  -1.11171487  -4.16862350  -2.70841695
H  -2.52401282  -3.56849957   0.92418731
H   1.17535211  -4.93758609  -0.24802950
H   2.58383573  -5.50562826  -1.29820380
H   4.86424239  -1.13225120   0.75825630
H   5.26396118   0.05730825   1.67528736
H   4.53062337   4.70996510   0.11153961
H   5.66401396   3.51795828   0.48464770
H   4.66884859   3.94954157   1.80932679
H   1.76232631   4.98975284   0.52654730
H  -7.84558002  -2.50684304   1.16241355
H  -7.18755118  -3.91391567   1.83199034
H  -7.06050425  -3.77020499   0.25840472
H  -6.91447712  -0.74865312  -0.14658878
H  -5.07219986   1.32129987  -0.77777317
H  -6.52084627   0.83749419  -1.75651511
H  -4.58199595   0.20879358  -1.79811679
H  -3.53159818   6.39399418   0.77786505
H  -4.23373631   4.75555187   0.97974299
H   0.18553195   6.71253293   1.79799417
H  -1.59775832   7.15219754   0.90402578
H   0.12959342   6.96932146   0.08621797
H  -3.72226661   6.21601723  -1.77768285
H  -5.49697182   5.65103769  -1.00185179
H  -4.12167438   4.52662045  -1.56290725
H   4.07299713  -4.54487524   1.72963869
H   7.93123169  -2.02508903   1.72478040




