%nproc=4
%Mem=2GB
# td(NStates=1) B3LYP/SVP nosymm

phycocyanobilin-abs Single Point

0 1
O  -4.42761083  -4.69731603   1.89425851
O   3.02860251  -4.77560969   1.33587066
O   6.97585839  -1.64886951   1.80986837
O   3.79000545  -3.08702354   0.09226377
O   7.54358626  -0.75533552  -0.17277742
O  -3.14469081   2.44981261  -0.16296477
N  -0.25972485  -0.57373851  -0.58508206
N   1.50870389   1.73148407  -0.37343087
N  -3.31710361  -3.00896562   0.61712258
N  -0.79232645   2.84290226  -0.01220695
C   0.58409160  -2.47727854  -1.38450164
C   0.94922615  -1.11225475  -1.02560710
C  -0.71929599  -2.62283697  -1.23763236
C  -1.23403064  -1.37748141  -0.70418451
C   3.73796489   1.41772624  -0.29030393
C   2.44862343   0.78228607  -0.66045451
C   2.12964087  -0.57760372  -0.94574406
C   3.59825245   2.77417490   0.02785919
C   1.67331616  -3.46202424  -1.82751638
C  -5.59953165  -2.56110723   1.33622746
C  -3.49962468  -1.83101994   0.08590441
C   2.09033450   2.98266075   0.01724871
C  -5.08971758  -1.46876426   0.33859959
C   5.02595996   0.74629048  -0.46039523
C  -2.56216138  -0.87557121  -0.39146241
C  -1.54895231  -3.81198477  -1.78280868
C  -4.37840805  -3.63481150   1.30901667
C   2.02373018  -4.49992088  -0.74797959
C   5.45736931  -0.27705942   0.75147929
C   4.47282743   3.89341194   0.41807293
C   1.29188380   4.08656592   0.32142736
C  -6.93246845  -3.17021770   1.12743361
C  -5.76166996  -0.54840690  -0.29391719
C  -0.05673965   3.96384433   0.29699529
C  -0.96503975   5.18112911   0.49673668
C  -2.26415698   4.66852852   0.28844060
C   3.06741572  -3.99221518   0.20697010
C  -5.40565785   0.45922931  -1.25666790
C   6.77316775  -0.83763067   0.70792512
C  -3.60591464   5.31713968   0.35479768
C  -2.15278847   3.19644165  -0.06189713
C  -0.50131112   6.44444488   0.89550517
C  -4.13235572   5.75739458  -0.97555180
H  -0.47474874   0.30838552  -0.01832942
H   3.11805902  -1.12552865  -1.16287759
H   2.45243376  -2.95811050  -2.28641263
H   1.30802816  -4.02668737  -2.73661056
H  -5.40855573  -2.21362416   2.36245517
H   5.10167249   0.19873251  -1.41898668
H   5.91604027   1.44140986  -0.70566477
H  -2.81785156   0.15760177  -0.69685726
H   0.47952432   1.80346831  -0.70760079
H  -1.44859818  -4.64506349  -0.92821769
H  -2.60000853  -3.40288659  -2.31750533
H  -1.00679965  -4.40188156  -2.39493479
H  -2.29352857  -3.42467815   0.75643114
H   1.16363543  -4.69914081  -0.06868031
H   2.35637781  -5.52290605  -0.98473354
H   4.60465981  -1.12867951   1.02208978
H   5.52283155   0.37223536   1.61847825
H   4.28888183   4.80997174  -0.21006256
H   5.47609303   3.43976281   0.49044378
H   4.13489057   4.27262418   1.40948597
H   1.74810985   4.96982160   0.46227385
H  -7.70583597  -2.44201228   1.50617533
H  -7.01044642  -3.90404874   1.86460619
H  -7.25781856  -3.68506936   0.03192057
H  -6.77912782  -0.68512036   0.05508847
H  -5.25604895   1.42350338  -0.76549353
H  -6.30731548   0.78469672  -1.82273933
H  -4.57587289   0.02244478  -2.09680554
H  -3.51507282   6.18426427   1.15500766
H  -4.20642178   4.62951359   0.78502333
H   0.16464319   6.61589258   1.83473251
H  -1.57215986   7.11304504   1.05480216
H   0.21289739   6.74229719   0.10024435
H  -3.63416059   6.73094497  -1.28911520
H  -5.17368831   6.05572183  -0.62236538
H  -4.31508740   5.05926687  -1.76570682
H   3.76505069  -4.28360847   1.87409599
H   7.79687672  -2.12463859   1.61367644




