--Link1--
%nproc=11
%Mem=12GB
%OldChk=pheo-a-s0.chk
%Chk=pheo-a-s0-01533.chk
# wB97XD/Def2TZVP Geom=Checkpoint Guess=Read iop(3/107=0153300000,3/108=0153300000)

pheo-a-s0

0 1

--Link1--
%nproc=11
%Mem=12GB
%OldChk=pheo-a-s0-01533.chk
# wB97XD/Def2TZVP Geom=Checkpoint iop(3/107=0153300000,3/108=0153300000)

pheo-a-s0-Cation

1 2

--Link1--
%nproc=11
%Mem=12GB
%OldChk=pheo-a-s0-01533.chk
# wB97XD/Def2TZVP Geom=Checkpoint iop(3/107=0153300000,3/108=0153300000)

pheo-a-s0-Anion

-1 2

