%nproc=4
%Mem=2GB
# td=(NStates=1) B3LYP/SVP 

TD

0 1
 8 -4.28189970077008 -4.95275964716472  1.74947897629763
 8  3.03512754145415 -4.59877118391839  1.12624676197620
 8  6.84908121242124 -1.53987125682568  1.95103778327833
 8  3.90477553505350 -3.08114613961396 -0.27419075847585
 8  7.64535407200720 -0.66009590469047  0.04142811011101
 8 -3.04883046914691  2.49041709250925 -0.47392895429543
 7 -0.22131912661266 -0.52533672677268 -0.69497651055106
 7  1.48751724442444  1.86781721422142 -0.30350192779278
 7 -3.21715370437044 -3.11259237223722  0.76154247284728
 7 -0.78726722242224  3.01063221262126 -0.34000784658466
 6  0.58151041534153 -2.43062102050205 -1.34692698779878
 6  0.93489639193919 -1.14833206490649 -0.96241509040904
 6 -0.77214134283428 -2.73771213341334 -1.21278334103410
 6 -1.29704012601260 -1.42942325372537 -0.79995912591259
 6  3.73737219801980  1.45351851835184 -0.27119138593859
 6  2.41434354015402  0.85576740224022 -0.57310149514951
 6  2.14911016121612 -0.44926218411841 -0.96764623922392
 6  3.55202584268427  2.79354915711571  0.13474146444644
 6  1.65363676877688 -3.45229693099310 -2.02880022562256
 6 -5.48332723942394 -2.84583019791979  1.29720698499850
 6 -3.58568242754275 -1.85592056795680  0.23963989578958
 6  2.12791710381038  3.04749474367437 -0.00500287688769
 6 -4.98241093739374 -1.63303226712671  0.51164520842084
 6  5.18555381728173  0.88871378827883 -0.25500445914591
 6 -2.64312912861286 -1.04015257065707 -0.36340281408141
 6 -1.51391105320532 -3.97579733283328 -1.62723304010401
 6 -4.28943861226123 -3.83070730253025  1.30305543114311
 6  2.11473260696070 -4.53485250895090 -1.04791401820182
 6  5.34852365476548 -0.11156928042804  0.81925447264726
 6  4.52194825612561  3.87827067636764  0.49604180448045
 6  1.26310498889889  4.17398194849485  0.23923564416442
 6 -6.90389504010401 -3.34869964976498  0.89991905400540
 6 -5.81629120972097 -0.53664944894489  0.28264543144314
 6 -0.13130104940494  4.11461971177118  0.14502631453145
 6 -1.09290438903890  5.15557309100910  0.46577504300430
 6 -2.33909338303830  4.67451895329533  0.22679858585859
 6  3.10512709470947 -3.99575224542454 -0.05628793959396
 6 -5.38265197469747  0.53732902150215 -0.65675714051405
 6  6.72014189318932 -0.68560403000300  0.84648554675468
 6 -3.70307785068507  5.21918297679768  0.40753526422642
 6 -2.17831738333833  3.30154511551155 -0.17154292409241
 6 -0.63552414351435  6.42555822582258  0.96232528412841
 6 -4.24724428702870  5.60722667936794 -1.00823991549155
 1 -0.48711029592959  0.38766563236324 -0.24728446814681
 1  3.08840620162016 -1.09899804100410 -1.06787687508751
 1  2.51144102540254 -2.60652224882488 -2.34400094719472
 1  1.08834984118412 -3.84330844174417 -2.89089744984498
 1 -5.63486521382138 -2.60931955665567  2.36076661656166
 1  5.33761627412741  0.26406578797880 -1.15122546984698
 1  5.98459702710271  1.61885141324132 -0.40225379998000
 1 -2.84861107880788  0.02940073037304 -0.56398679617962
 1  0.49950718131813  2.07877772167217 -0.52182962846285
 1 -1.21497623342334 -4.76773134363436 -0.89883939373937
 1 -2.44103421442144 -3.75488607500750 -1.68933706680668
 1 -1.13497867776778 -4.47820488928893 -2.62775836513651
 1 -2.33336572287229 -3.45599533023302  0.49677234243424
 1  1.21739256855686 -4.97672037033703 -0.59701509140914
 1  2.64172027642764 -5.49276338323832 -1.49111449334933
 1  4.53919915291529 -0.93163432683268  0.73105284138414
 1  5.22443678907891  0.29910594929493  1.95537334043404
 1  4.61655218081808  4.77798821522152 -0.08655002680268
 1  5.64256734843484  3.41250878407841  0.44462025162516
 1  4.29674670727073  4.11298677077708  1.62968868576858
 1  1.65850662926293  4.98123730113011  0.69448052325233
 1 -7.64708627692769 -2.61445652915291  1.22940421002100
 1 -7.00682474637464 -4.42558894099410  1.42119796019602
 1 -6.86175187218722 -3.64738215431543 -0.17879579117912
 1 -6.85597011931193 -0.82031293979398  0.41527952905291
 1 -4.86816578867887  1.42695751665167 -0.18822608390839
 1 -6.37552592999300  0.89709878487849 -1.05716003210321
 1 -4.93870318231823  0.00624078627863 -1.55018178297830
 1 -3.79069105460546  6.25071947704771  0.79863674017402
 1 -4.52113355155516  4.46068840074007  1.03604963126313
 1 -0.18345749024902  6.29359992539254  2.08601844344434
 1 -1.48845495579558  7.09750320502050  1.18325767746775
 1  0.09213838183818  7.07399968566857  0.33570452755276
 1 -3.82640054705471  6.52666029172917 -1.29172337483748
 1 -5.33248595579558  5.85227834393439 -0.64300417761776
 1 -4.10796427332733  4.81234140444044 -1.89029853785379
 1  3.54180258075808 -4.09288550105010  1.62117289968997
 1  7.65811383598360 -2.11025041404140  1.70747813081308

