%nproc=4
%Mem=2GB
# td=(NStates=1) B3LYP/SVP 

TD

0 1
 8 -4.14956646744674 -4.79787415861586  2.00409443784378
 8  2.90617464616462 -4.90182148894889  1.12232636993699
 8  7.02619892419242 -1.51856912661266  1.80021270077008
 8  3.78613367086709 -3.16710473547355 -0.02192553195320
 8  7.64783432003200 -0.31507140224022  0.08620258755876
 8 -3.09909549564957  2.43271132193219 -0.34497605900590
 7 -0.29584657935794 -0.54182837593759 -0.58199521242124
 7  1.56013450615062  1.73228366086609 -0.34271584918492
 7 -3.26121811081108 -3.13933504650465  0.63795011361136
 7 -0.82172066776678  2.83339448884888 -0.12399624542454
 6  0.65995826012601 -2.31826978537854 -1.52908520362036
 6  0.94353725602560 -0.96303353505351 -1.02873172207221
 6 -0.78224235293529 -2.63561192339234 -1.31648371107111
 6 -1.41320174217422 -1.41915222662266 -0.79550868086809
 6  3.80372883368337  1.53683685018502 -0.33477774457446
 6  2.44634674047405  0.79644146964696 -0.51967615261526
 6  2.23590884108411 -0.52053931183118 -0.84636411101110
 6  3.47879851995200  2.86397619981998  0.03087107740774
 6  1.69129053415342 -3.34358605990599 -2.06395374097410
 6 -5.42800170687069 -2.72783839873987  1.40462772707271
 6 -3.60768462776278 -1.90707568346835  0.13408934073407
 6  2.04519883198320  2.95453544774477  0.05902352575258
 6 -5.06505920222022 -1.67726669056906  0.43609765366537
 6  5.13705896779678  0.88625354225423 -0.34417337603760
 6 -2.77144195989599 -1.12825138053805 -0.45250172397240
 6 -1.49717938003800 -3.78035778887889 -1.86238655545555
 6 -4.19485915431543 -3.78257248904890  1.43939906550655
 6  2.09810094379438 -4.52521154485449 -1.19612883968397
 6  5.39314811721172 -0.11849997349735  0.90280282748275
 6  4.50314637593759  3.91962481178118  0.58293049334933
 6  1.37567624602460  4.08239278957896  0.38731045164516
 6 -6.77628227882788 -3.40196497629763  1.11108017011701
 6 -5.86893647424743 -0.67985376937694  0.04428159505951
 6 -0.21646956625663  4.01878012781278  0.34331614351435
 6 -1.10236533513351  5.12344987868787  0.52711117661766
 6 -2.36934640834083  4.63310481188119  0.18573447944794
 6  2.91117769976998 -4.04489715991599 -0.01868417921792
 6 -5.44200791029103  0.59194448304830 -0.74723618841884
 6  6.70885076407641 -0.72627809740974  0.80856175437544
 6 -3.60218776167617  5.47721878037804  0.24049856055606
 6 -2.14065361696170  3.16513147414742 -0.16049181898190
 6 -0.59328992009201  6.43414908490849  0.91393044464446
 6 -4.21775133773377  5.61012696939694 -1.17564665616562
 1 -0.51869345424543  0.41533839963996 -0.30358009770977
 1  3.09818717971797 -1.29608774997500 -1.09449953735374
 1  2.64775465676568 -2.73632522912291 -2.50108665576558
 1  1.12794380058006 -3.99089320022002 -2.90958931903190
 1 -5.42258398569857 -2.28309693439344  2.53945448534853
 1  5.32757527002700  0.28647802920292 -1.00760110741074
 1  5.99943851125112  1.51218074617462 -0.33994756935694
 1 -3.15300151785179 -0.17194940464046 -0.51117151465147
 1  0.57469470007001  1.72228207210721 -0.55963340884088
 1 -1.20348508430843 -4.80182475297530 -1.46739624942494
 1 -2.38720883188319 -3.70592117851785 -2.01219935303530
 1 -1.02365754565456 -4.21641871067107 -2.77436302560256
 1 -2.49064145044504 -3.76753648434844  0.39481214641464
 1  1.07605843514351 -5.10158285658566 -0.79019440934093
 1  2.78595469986999 -5.19007311421142 -1.68167354925493
 1  4.62263749674968 -0.83707487088709  0.96239597569757
 1  5.31926627202720  0.44902094079408  1.82576037913791
 1  4.62910343594359  4.90838125452545  0.02857148534854
 1  5.61970506220622  3.64251178437844  0.74936072567257
 1  4.30999803240324  4.15064053615362  1.66235195209521
 1  1.69368014661466  5.00162934033403  0.54575565076508
 1 -7.62642421072107 -2.62386747024702  1.15539680928093
 1 -7.07024108800880 -4.28031441354135  1.87378321872187
 1 -6.77913361036104 -3.72390980708071 -0.09698761036104
 1 -6.75983050535054 -0.63190409890989  0.21495949704970
 1 -4.67275624772477  1.09926474737474 -0.08428568986899
 1 -6.28622700010001  1.30555963096310 -1.18589290539054
 1 -4.86655596759676  0.31263142534253 -1.56609337413741
 1 -3.45073705920592  6.52923732883288  0.48529540604060
 1 -4.29620105830583  4.93603593549355  0.81135716201620
 1 -0.31106025052505  6.53871443684368  1.92610245184518
 1 -1.40874698499850  7.09770322502250  0.88117746944694
 1 -0.00146097809781  6.84760704640464  0.13051400850085
 1 -3.54022192919292  6.37314494019402 -1.70740494299430
 1 -5.26843955115512  5.99818293439344 -0.95182505970597
 1 -4.33063654055406  4.55383555385539 -1.65809531753175
 1  3.76030443094309 -4.77550376287629  1.53110389278928
 1  7.89049707430743 -1.79972936193619  1.77956533953395

