%nproc=4
%Mem=2GB
# td=(NStates=1) B3LYP/SVP 

TD

0 1
 8 -4.30852236303630 -4.94334870607061  1.70752478087809
 8  2.91824585328533 -4.76969827662766  1.16652078937894
 8  6.99595589988999 -1.41119838953895  1.99851253075308
 8  3.77141219871987 -3.14531255625563 -0.11649498889889
 8  7.41043057965797 -0.76637653275328 -0.15505153785379
 8 -2.99169475557556  2.31402945374537 -0.38700026142614
 7 -0.22646964166417 -0.45804999809981 -0.61327834073407
 7  1.54174266696670  1.86008644114411 -0.38819039663966
 7 -3.28458044704470 -3.16700781378138  0.74564088268827
 7 -0.85349384508451  2.90946209560956 -0.07163100890089
 6  0.63419568386839 -2.34128208660866 -1.48538083318332
 6  0.93108601090109 -1.04948217991799 -1.10319916881688
 6 -0.75948007670767 -2.57573593579358 -1.32801486418642
 6 -1.28858928092809 -1.40900121152115 -0.69260839083908
 6  3.86104456525653  1.56787995449545 -0.23968823562356
 6  2.53208531433143  0.92473429892989 -0.59145333033303
 6  2.32066731693169 -0.39528678657866 -0.95900537513751
 6  3.55570621072107  2.83396319851985  0.11959995029503
 6  1.72280368546855 -3.32380408170817 -2.06079342494249
 6 -5.35409431613161 -2.79146476137614  1.43843110741074
 6 -3.51525538483848 -1.86350132603260  0.19177510931093
 6  2.04165847794779  3.01207120132013 -0.01178355495550
 6 -4.94533723002300 -1.66090505440544  0.57940198409841
 6  5.12086734863486  0.79682459935994 -0.23415237393739
 6 -2.59819463516352 -1.04831338673867 -0.37945441924192
 6 -1.47732739483948 -3.85400515361536 -1.90013032983298
 6 -4.30630029842984 -3.77111134293429  1.34982010761076
 6  2.02994412811281 -4.46830585428543 -1.15153438023802
 6  5.24841364376438 -0.09670779427943  0.86910945814581
 6  4.55959202050205  3.86959980928093  0.58615081538154
 6  1.27015569396940  4.11119566986699  0.35451717231723
 6 -6.72297694829483 -3.35015979577958  0.89566862896290
 6 -5.75224480508051 -0.56642242624262  0.30628779567957
 6 -0.16095401470147  4.02618086788679  0.22305411731173
 6 -1.10930602920292  5.14187172087209  0.36233469896990
 6 -2.34946442014201  4.59801130253025  0.23244915091509
 6  2.99108569056906 -4.07037970817082 -0.01322363316332
 6 -5.49470317981798  0.65302059065907 -0.63110457525753
 6  6.69352923192319 -0.75319078867887  0.89246014421442
 6 -3.69122666556656  5.38498955745575  0.27262177287729
 6 -2.14696424802480  3.17853281428143 -0.08415418521852
 6 -0.68168875997600  6.50822649264927  0.84480353195320
 6 -4.27688725132513  5.39582553925393 -1.16948604010401
 1 -0.40908249314931  0.32631949774977 -0.08426816651665
 1  3.28856621762176 -1.03541168236824 -0.89231931933193
 1  2.65614549584958 -2.93368496509651 -2.53968051515151
 1  1.04654566076608 -3.69909402030203 -2.86464482458246
 1 -5.60249197649765 -2.39859848454845  2.31943248314832
 1  5.46928944144414  0.44704408580858 -1.27786813411341
 1  5.75921448884888  1.73141266936694 -0.24310788538854
 1 -2.63734995269527  0.05156294659466  0.01165076757676
 1  0.47181441204120  1.94631447534754 -0.65307275277528
 1 -1.42448718451845 -4.67676224672467 -0.89679918971897
 1 -2.51103121412141 -3.58598918531853 -2.08436656975698
 1 -1.10600578047805 -4.10634770357036 -2.85025061436144
 1 -2.47307969426943 -3.70418014871487  0.60481314651465
 1  1.23585441474147 -4.98783148144815 -0.55364075397540
 1  2.63055916031603 -5.28080218711871 -1.71853723562356
 1  4.44653988698870 -0.92631379477948  1.05774551065107
 1  5.12940728612861  0.54211024972497  1.72226002910291
 1  4.52675320092009  4.74946536293629 -0.34880625242524
 1  5.70332342404240  3.51788932213221  0.77116290589059
 1  4.37365439803980  4.09782525462546  1.62147786468647
 1  1.75201598019802  4.95240441784178  0.77291836703670
 1 -7.60702227052705 -2.87122220572057  1.02183345294530
 1 -6.93051711561156 -4.02804918701870  1.61412725312531
 1 -6.52101779877988 -3.86769418551855  0.01355344374437
 1 -6.75304982728273 -0.80705161366137  0.97466546764676
 1 -4.99154812691269  1.48285310621062 -0.29929719101910
 1 -6.54007238463846  1.13030210521052 -0.93343765986599
 1 -5.05362467446745  0.35894605680568 -1.30874763956396
 1 -3.59864184968497  6.50636504160416  0.68607548404841
 1 -4.42812425062506  4.65121745364536  0.79548557485749
 1 -0.13264240874087  6.30730129552955  1.69730957255726
 1 -1.71580769106911  7.11236469116912  0.79033838553855
 1  0.12405157315732  7.13153543924392  0.32740369746975
 1 -3.88375628262826  5.95907353305330 -1.89262346484648
 1 -5.35471817901790  5.84719783588359 -0.98987886508651
 1 -4.21170464736474  4.24134430473047 -1.57524703270327
 1  3.63066146664666 -4.37944415691569  1.68303908630863
 1  7.82701072567257 -2.01086047504750  1.95266264926493

