%nproc=4
%Mem=2GB
# td=(NStates=1) B3LYP/SVP 

TD

0 1
 8 -4.31469298009801 -4.82927729892989  1.90398442684268
 8  3.04908893759376 -5.02164347114711  1.02146628392839
 8  6.90917722202220 -1.69233650335034  1.84123680318032
 8  3.84583964146415 -3.16431445644564  0.09629629022902
 8  7.58597813441344 -0.63335323042304  0.07412137943794
 8 -3.02177776387639  2.40400845164516 -0.36060762216222
 7 -0.24914190889089 -0.41246543964396 -0.59802681558156
 7  1.63361185388539  1.87793822632263 -0.52797437503750
 7 -3.24588657765777 -3.13538465146515  0.70053637223722
 7 -0.79495799149915  2.93948509790979 -0.13940778657866
 6  0.59009127342734 -2.37838579697970 -1.34209650475047
 6  0.96396929922992 -1.00779801150115 -0.88357720662066
 6 -0.74177830653065 -2.52750111231123 -1.08775083778378
 6 -1.32465288728873 -1.31421173257326 -0.69664879487949
 6  3.91641010181018  1.55770893739374 -0.41326559335934
 6  2.56867897369737  0.92178400390039 -0.64999918491849
 6  2.21397664786479 -0.43059031693169 -0.89704917951795
 6  3.61388202830283  2.88707851005100 -0.06179818951895
 6  1.64132553765377 -3.28635033633363 -1.96778412401240
 6 -5.49488839553955 -2.81573718861886  1.25414267856786
 6 -3.60765462476248 -1.88347332323232  0.17885381718172
 6  2.23351766386639  3.10626062026203 -0.12487486408641
 6 -4.99990268656866 -1.68694765866587  0.41300534443444
 6  5.24394965686569  0.82075699259926 -0.36087504620462
 6 -2.64732954865487 -1.01235979137914 -0.28462493629363
 6 -1.51621128322832 -3.70707046014601 -1.63468378517852
 6 -4.35043471187119 -3.80756498829883  1.24170929652965
 6  2.12774390809081 -4.45703472717272 -1.12662188898890
 6  5.43078188058806 -0.10638876237624  0.86260880808081
 6  4.47704376567657  3.92895574487449  0.54238643894389
 6  1.32737141554155  4.21291584188419  0.15749747034703
 6 -6.92158680928093 -3.47614239403940  0.78234729682968
 6 -5.82561214181418 -0.67509329332933  0.09126629352935
 6 -0.10868878817882  4.08858710851085  0.22002381428143
 6 -1.21065616421642  5.20452798649865  0.50045851135114
 6 -2.35672514621462  4.59624112551255  0.25330123612361
 6  3.10585716771677 -4.12498516871687  0.05838352755276
 6 -5.54176788628863  0.61621691029103 -0.67267873267327
 6  6.70602048104810 -0.78183365296530  0.84186508470847
 6 -3.68281582448245  5.23349440794079  0.40067457815782
 6 -2.13481303290329  3.16815177617762 -0.07345311511151
 6 -0.72888347944794  6.46640231023102  0.85462451405141
 6 -4.50874043664366  5.41693765046505 -0.99686877837784
 1 -0.32958454335434  0.49470633643364 -0.14286402610261
 1  3.04047140814081 -1.02705084628463 -1.27205729312931
 1  2.49172905420542 -2.79563115971597 -2.23487003410341
 1  1.13314432063206 -3.43757786868687 -2.99552791289129
 1 -5.51926365366537 -2.51065969066907  2.37482802270227
 1  5.47068958145815  0.27752713411341 -1.25400574787479
 1  5.97890645804580  1.60408993709371 -0.20308388298830
 1 -3.04754097179718  0.02037982828283 -0.36054645214521
 1  0.51703893449345  1.90825066896690 -0.51882932843284
 1 -1.44044878067807 -4.66251082158216 -0.96376588638864
 1 -2.61884199519952 -3.38801938833883 -1.83596172927293
 1 -1.03657883778378 -4.05099216801680 -2.59690527982798
 1 -2.16088847514752 -3.47783751445145  0.99439210441044
 1  1.27918874817482 -4.93379607790779 -0.73563895379538
 1  2.55402150655065 -5.18994310121012 -1.88107348924892
 1  4.59877511051105 -0.85444660806081  0.93322305840584
 1  5.50204454985499  0.52389842854285  1.69465726882688
 1  4.16077660326033  5.05007542394239  0.14410303850385
 1  5.62157524922492  3.82921045424542  0.38956474607461
 1  4.51712874547455  3.76899237133713  1.70605632253225
 1  1.74402518111811  5.17587676507651  0.53817489268927
 1 -7.76389795809581 -2.78460354385439  1.08409967956796
 1 -7.15701976587659 -4.38843522562256  1.43268910931093
 1 -6.89313501050105 -3.56421383748375 -0.31037894949495
 1 -7.02483700600060 -0.91202211071107  0.31740974207421
 1 -4.98131710381038  1.44036885778578 -0.19633689498950
 1 -6.58260663806381  1.07358643364336 -1.05124944104410
 1 -4.92140145214521  0.31962212441244 -1.59525629042904
 1 -3.65081706720672  6.30662506760676  0.90302717921792
 1 -4.33461489968997  4.72527485938594  0.96388241454145
 1 -0.13601274577458  6.51316188158816  1.80060990259026
 1 -1.55355146544654  7.34173762846285  0.76230558225823
 1  0.16011517951795  6.95394768046805  0.20066102320232
 1 -4.16472437943794  6.19458708440844 -1.70615481798180
 1 -5.62103481068107  5.55247836393639 -0.63213309050905
 1 -4.55625910281028  4.32017218751875 -1.51397090509051
 1  3.81435983648365 -4.90872708520852  1.53920470287029
 1  7.81162918751875 -1.93779316831683  1.91360874387439

