%nproc=4
%Mem=2GB
# td=(NStates=1) B3LYP/SVP 

TD

0 1
 8 -4.20146165696570 -4.82379675087509  2.03385741414141
 8  3.06901092979298 -4.92465377217722  0.95659979727973
 8  7.02760906520652 -1.59176644634463  1.82429510901090
 8  3.81012607010701 -3.11321934693469 -0.16615995539554
 8  7.63505304190419 -0.38568846394639  0.09842380968097
 8 -3.04469005510551  2.49637768856886 -0.40914247564756
 7 -0.33170016471647 -0.55019921302130 -0.51600861376138
 7  1.53539203190319  1.77200763326333 -0.42833441104110
 7 -3.19624161316132 -3.00560167316732  0.69422574117412
 7 -0.82268076377638  2.92484363376338 -0.25438928472847
 6  0.58194045834583 -2.32760071847185 -1.46084837993799
 6  0.91106400870087 -1.05742297399740 -0.98266711561156
 6 -0.77566169486949 -2.56305466766677 -1.26102816551655
 6 -1.30027044904490 -1.36261657305731 -0.66048517851785
 6  3.80727918871887  1.45315848234823 -0.25506977377738
 6  2.54769687548755  0.86508833433343 -0.68169235423542
 6  2.23427867806781 -0.51323858175818 -0.96278575317532
 6  3.50000064016402  2.76418622082208  0.21358934923492
 6  1.51756316141614 -3.35396709800980 -2.09980732633263
 6 -5.46398530523052 -2.86356197109711  1.33962122642264
 6 -3.51866572587259 -1.76586156205621  0.20290622242224
 6  2.08492280438044  2.96939693389339  0.09149677307731
 6 -4.98869156545655 -1.67535649954995  0.50994503840384
 6  5.10705596749675  0.84562947984798 -0.21644060276028
 6 -2.53940875657566 -0.83288184358436 -0.26428290209021
 6 -1.58483814591459 -3.71584133723372 -1.75407572437244
 6 -4.24010367876788 -3.69858409020902  1.49385451105111
 6  1.90577171087109 -4.53040206390639 -1.11883110991099
 6  5.28672747514752 -0.26179430293029  0.90834338153815
 6  4.38364442574257  3.96760961026103  0.63394559485949
 6  1.26948562696270  4.01554610491049  0.35043676427643
 6 -6.70473512411241 -3.61347612741274  0.89576863896390
 6 -5.83757333793379 -0.71271705570557  0.02348951585159
 6 -0.13583150245025  4.03365161496150  0.22723453535354
 6 -1.00992609120912  5.06035356905691  0.45727419291929
 6 -2.33529300300030  4.64122562396240  0.27512341834183
 6  3.05334191619162 -4.09058172837284 -0.06583889468947
 6 -5.50057376687669  0.46584187278728 -0.76807827262726
 6  6.76004588358836 -0.68727419701970  0.85815671387139
 6 -3.58833637653765  5.31243230173017  0.26068057875788
 6 -2.20313986558656  3.28112307330733 -0.25323109290929
 6 -0.68202879397940  6.58778444844484  0.89801885348535
 6 -4.19374893749375  5.56903285998600 -1.16060515201520
 1 -0.25820740564056  0.37882474827483 -0.05712545224522
 1  2.87856521752175 -1.13845198639864 -1.21030111751175
 1  2.52423230453045 -2.88703029962996 -2.27379392649265
 1  1.16535754195420 -3.99446355725573 -3.01081944204420
 1 -5.53238496579658 -2.41667029172917  2.42990353025303
 1  4.98898141064106  0.11571095249525 -1.10546089338934
 1  5.95438400580058  1.38379790789079 -0.40696427102710
 1 -2.83500971867187  0.17091488178818 -0.60076047354736
 1  0.48440567116712  1.77059690359036 -0.75766321182118
 1 -1.68451318711871 -4.59527409790979 -0.97228673847385
 1 -2.64058416941694 -3.52258284468447 -1.90718885198520
 1 -1.23789896979698 -4.23118018681868 -2.59941553085309
 1 -2.21375376167617 -3.24317404810481  0.68257092229223
 1  1.17966879617962 -4.66490918921892 -0.38408379827983
 1  2.34313041744174 -5.32664677157716 -1.72615799769977
 1  4.69693492649265 -1.10421158455846  0.77018675477548
 1  4.94432877827783  0.18821486018602  1.89953775687569
 1  4.58625915151515  4.95347576397640 -0.22984435623562
 1  5.47042013371337  3.74228176137614  0.73495928552855
 1  4.09857689028903  4.52564803690369  1.62923864076408
 1  1.57927870647065  4.97862704010401  0.48035911111111
 1 -7.48113968226823 -2.93243832733273  0.90549181878188
 1 -7.11940600450045 -4.41936831893189  1.48279411981198
 1 -6.79752544954495 -4.16312372847285 -0.06669458105811
 1 -6.97702222452245 -0.89182009050905  0.24584258535854
 1 -4.85106407850785  1.08666348724872 -0.16951421272127
 1 -6.28784716211621  1.22975205020502 -1.07086140224022
 1 -4.81851116311631  0.03759392159216 -1.57722448724872
 1 -3.81754373987399  6.08517292239224  0.81721859835984
 1 -4.44967640584058  4.52408474037404  0.61948797509751
 1 -0.35131427592759  6.47271783718372  1.88244808640864
 1 -1.55054116441644  7.20778423312331  1.08347769946995
 1  0.11152032003200  7.11082336803680  0.33103406050605
 1 -3.59883779077908  6.36400402610261 -1.71265546804681
 1 -5.21677438463846  5.77120023612361 -1.14609448664866
 1 -4.09675315221522  4.65837600790079 -1.82612212021202
 1  3.62919131963196 -4.60221643414341  1.67194797719772
 1  7.94554257885789 -1.72355174417442  1.73241062406241

