%nproc=4
%Mem=2GB
# td=(NStates=1) B3LYP/SVP 

TD

0 1
 8 -4.16535804660466 -4.92357672887289  1.80660468886889
 8  3.12958698739874 -4.99493079987999  1.04401853915392
 8  6.84756106040604 -1.54182145184518  1.81445412491249
 8  3.65269032653265 -3.10948897389739 -0.03300664006401
 8  7.47717725432543 -0.67504739983998 -0.11303733643364
 8 -3.00079566566657  2.39532758355836 -0.56072763416342
 7 -0.27741473617362 -0.43410760386039 -0.63684069696970
 7  1.55500399309931  1.91275170767077 -0.29502107970797
 7 -3.21898388738874 -3.09842095509551  0.79215553415342
 7 -0.86230472617262  2.96974812421242  0.00271642584258
 6  0.67516978127813 -2.38357631603160 -1.44062635773577
 6  0.95163806610661 -1.02622985468547 -1.03192204110411
 6 -0.73016714541454 -2.53403176537654 -1.29272133483348
 6 -1.27345776777678 -1.38027833923392 -0.74281341134113
 6  3.80213867466747  1.54211737823782 -0.20182444924492
 6  2.53826593239324  0.91594341984198 -0.50069425442544
 6  2.24138938913891 -0.44978223612361 -0.89281875647565
 6  3.58841948204820  2.86301610381038  0.23317130743074
 6  1.60216162126213 -3.39273097439744 -2.01088843444344
 6 -5.50372927962796 -2.75551116601660  1.41324858915892
 6 -3.44856871617162 -1.83068804470447  0.32315824762476
 6  2.08795310741074  3.01070106430643  0.15097272067207
 6 -4.89169186548655 -1.52743170707071  0.55465950985099
 6  5.08014327622762  0.83602851975198 -0.33073203190319
 6 -2.56530134583458 -0.99525808120812 -0.25756223002300
 6 -1.53974363646365 -3.70769052215222 -1.87958827562756
 6 -4.21900156855686 -3.80115434723472  1.41381650725072
 6  2.14839597329733 -4.60199922362236 -1.09464869166917
 6  5.26275507790779 -0.13224134763476  0.95276782398240
 6  4.52610867216722  3.98039088838884  0.53954615491549
 6  1.25430410881088  4.11958650895089  0.38501022162216
 6 -6.79261391199120 -3.40900568036804  0.77474653675368
 6 -5.77360694129413 -0.65609139313931  0.10708787568757
 6 -0.16145406470647  4.05837408720872  0.23128494039404
 6 -1.09721482008201  5.12818035173517  0.46401486698670
 6 -2.37389686338634  4.61277277867787  0.18954486048605
 6  3.14015059705971 -4.14758742894289  0.00953864306431
 6 -5.56123983348335  0.60600588918892 -0.61797326212621
 6  6.65201508050805 -0.83828929852985  0.71299219741974
 6 -3.72796033893389  5.27146820532053  0.24682919361936
 6 -2.19780933253325  3.22650761176118 -0.10653642344234
 6 -0.63590418151815  6.54405007500750  0.70088914051405
 6 -4.29719928252825  5.39175513221322 -1.13728281978198
 1 -0.46918850375038  0.40850771657166 -0.07045678537854
 1  3.04947230823082 -0.96113425462546 -1.11417150455045
 1  2.37764764606461 -2.86901849844984 -2.55135168226823
 1  1.03448445464546 -3.88402251315132 -2.84188254835483
 1 -5.69787151445144 -2.33157178187819  2.27835837573757
 1  5.21826433893389  0.17530691209121 -1.33106345364536
 1  6.06784535193519  1.31832136023602 -0.50978455305531
 1 -2.81955817351735 -0.01424363406341 -0.30380077757776
 1  0.55006223682368  2.08712855675568 -0.43890133563356
 1 -1.55429016481648 -4.71774634513451 -1.30330984078408
 1 -2.52681279227923 -3.28882946934693 -1.84957309040904
 1 -1.25484066396640 -3.93110017881788 -2.73894948424842
 1 -2.21706409270927 -3.52865259595960  0.80291295649565
 1  1.31030185948595 -4.90024272257226 -0.59396478637864
 1  2.75027113151315 -5.23649775667567 -1.61375675757576
 1  4.36245147814781 -0.80135129852985  1.16294603070307
 1  5.31004534993499  0.39968600730073  1.75988379147915
 1  4.35711623722372  4.80878129452945 -0.13844521632163
 1  5.57039013071307  3.69138667186719  0.60535632523252
 1  4.06284331693169  4.48523399549955  1.36267198409841
 1  1.62828360696070  5.16260543794379  0.49603067826783
 1 -7.68473004130413 -2.79209429292929  0.93735500510051
 1 -7.09345340924092 -4.39197557965797  1.35313115351535
 1 -6.54815051205121 -3.73873128922892 -0.21214912651265
 1 -6.87113163546355 -0.71267217571757  0.58090609170917
 1 -5.18956792889289  1.38911373227323 -0.15373263456346
 1 -6.49989836723672  1.06079515451545 -1.19794411051105
 1 -5.07259657165717  0.54377453965397 -1.76471323612361
 1 -3.66662864836484  6.28727313241324  0.72831970847085
 1 -4.30694213241324  4.52560489238924  0.74200022632263
 1 -0.16144528902890  6.33647421282128  1.64540438203820
 1 -1.50860697099710  7.21610506520652  0.71913126482648
 1  0.24356352435243  6.96508879457946 -0.03612265516552
 1 -3.63010091709171  5.98113573927393 -1.84300850335033
 1 -5.26430913811381  5.77457057315732 -1.11425130233023
 1 -4.57494097099710  4.46685685598560 -1.54289379737974
 1  3.87537593809381 -4.95855206770677  1.58195897829783
 1  7.65261328592859 -1.98155754475448  1.82890027302730

