%nproc=4
%Mem=2GB
# td=(NStates=1) B3LYP/SVP 

TD

0 1
 8 -4.35679719051905 -4.98628299949995  1.66276030443044
 8  2.83250727942794 -4.71088239503950  1.33454759205921
 8  7.17738404270427 -1.64960222992299  1.56800948044804
 8  3.83979903740374 -3.19255728072807  0.00092675327533
 8  7.71909144574457 -0.46121601670167 -0.37950398309831
 8 -3.04211979807981  2.51936998779878 -0.44073563496350
 7 -0.32090908560856 -0.45801999509951 -0.47020403330333
 7  1.60259875257526  1.80574100660066 -0.32723430103010
 7 -3.37057904690469 -3.09819093209321  0.70245656425643
 7 -0.82580107580758  2.83532468186819 -0.07680152595260
 6  0.56494875917592 -2.30871883028303 -1.34868716381638
 6  0.87919082138214 -1.09302653435344 -0.83219206810681
 6 -0.73690781948195 -2.60663902610261 -1.18885094779478
 6 -1.34195461746175 -1.42640295169517 -0.66319544954495
 6  3.80428888968897  1.55849901640164 -0.17608187498750
 6  2.53592569836984  0.85552737823782 -0.46284046904690
 6  2.26026127632763 -0.43758101600160 -0.69632910751075
 6  3.57651829192919  2.79800960316032  0.11087907820782
 6  1.61007241234123 -3.37474917621762 -1.96935428102810
 6 -5.60737964466447 -2.94188980388039  1.21341860616062
 6 -3.55520938023802 -1.81461643754375  0.29314524632463
 6  2.11363567566757  3.03870386458646  0.12289991339134
 6 -5.10116281258126 -1.77577654155416  0.42163620752075
 6  5.09883514541454  0.81774669156916 -0.45688464716472
 6 -2.63522833853385 -1.03253180858086 -0.21707818161816
 6 -1.54093375547555 -3.73210296339634 -1.73898421522152
 6 -4.41088075647565 -3.79894412621262  1.27641276687669
 6  1.92515364906491 -4.47227625132513 -0.88350757755776
 6  5.64969377177718  0.08022989948995  0.82248479567957
 6  4.59294535583558  3.82320516981698  0.48695089538954
 6  1.25527420582058  4.18713326362636  0.37760948154815
 6 -6.76883153375338 -3.57693247304730  0.64292335443544
 6 -5.85477505810581 -0.62374815881588  0.09493666056606
 6 -0.11781970127013  4.02179042884288  0.28529034093409
 6 -1.09225432403240  5.13438097179718  0.56633509900990
 6 -2.35852532623262  4.64848635003500  0.16248215421542
 6  2.98787536953695 -3.99944261446145  0.18453614281428
 6 -5.50599430893089  0.56946223482348 -0.82545401020102
 6  7.03519339833983 -0.63846931653165  0.65757665586559
 6 -3.72089963286329  5.32348340684068  0.30954546524652
 6 -2.14652420402040  3.18728368936894 -0.13453922372237
 6 -0.71349194029403  6.56525219521952  0.84134318591859
 6 -4.30574013661366  5.56014197089709 -1.07157624912491
 1 -0.36834841974197  0.44640150595060 -0.11001074077408
 1  3.06402376337634 -1.10127826902690 -0.75918600600060
 1  2.43987386868687 -2.94540613721372 -2.25474202130213
 1  1.11683268946895 -3.99858396929693 -2.72044040414041
 1 -5.61002272957296 -2.61950057475748  2.15981652155215
 1  5.06914942744274 -0.12832345094509 -1.13587393469347
 1  6.03008157555756  1.44078360646065 -0.65919949454946
 1 -2.80353657135714 -0.07647985768577 -0.44720511801180
 1  0.47951518211821  1.79002884678468 -0.39409685518552
 1 -1.33295803160316 -4.62735730623062 -1.23251276107611
 1 -2.72617272827283 -3.33736432283228 -1.76345447854785
 1 -1.21788696859686 -4.11798886768677 -2.62920851015101
 1 -2.42102448874887 -3.36714644534453  0.73386605180518
 1  0.93728455775578 -4.93830652895290 -0.44067945784578
 1  2.47339344374437 -5.40074418131813 -1.36205158705871
 1  4.99514474747475 -0.73072423582358  1.24543427952795
 1  5.79874421982198  0.56923296199620  1.96044384748475
 1  4.56641716731673  4.54047446384638 -0.23987535933593
 1  5.65295838753875  3.35513304650465  0.35562135173517
 1  4.56763379597960  4.18356382848285  1.41666738363836
 1  1.63581436003600  5.08787796519652  0.52813388858886
 1 -7.84006557485749 -3.19173425692569  0.80340160976098
 1 -6.77635169906991 -4.62245862796280  1.14002984338434
 1 -6.65426112311231 -3.70316773287329 -0.52015992759276
 1 -6.83453797609761 -0.56204711321132  0.46777477857786
 1 -4.78978795089509  1.30905572647265 -0.35576283758376
 1 -6.52257063446345  1.08326740174017 -1.12452676877688
 1 -4.83805311731173  0.43886404860486 -1.78840560536054
 1 -3.64274626012601  6.18007241234123  0.83519039553955
 1 -4.29004044224422  4.51644397629763  0.73193922022202
 1 -0.21270041454145  6.54139470487049  1.61416125772577
 1 -1.51447755805581  7.25229868456846  1.20618997069707
 1  0.07414658265827  6.84986727242724  0.03228418551855
 1 -3.66282418941894  6.17922554825483 -1.86779098159816
 1 -5.27138984618462  5.95439855595560 -1.33191306850685
 1 -4.17274075097510  4.48700887118712 -1.65106461446145
 1  3.48762716321632 -4.37244345684568  1.80613139553955
 1  7.93768179277928 -1.98348773777378  1.31469885288529

