%nproc=4
%Mem=2GB
# td=(NStates=1) B3LYP/SVP 

TD

0 1
 8 -4.41271278207821 -4.82761713291329  1.88114214261426
 8  2.98564259295930 -4.97750905770577  1.05070920822082
 8  7.11314761906191 -1.44149141884188  1.78567124662466
 8  3.73744880238024 -3.14832285728573  0.01148780938094
 8  7.55466500310031 -0.37573746884688 -0.05613164586459
 8 -3.04328991509151  2.36057410821082 -0.29337089848985
 7 -0.26577357205721 -0.56959115221522 -0.46850386328633
 7  1.54558305100510  1.88029846234623 -0.42400397799780
 7 -3.30616260526053 -3.13243435643564  0.72239855845585
 7 -0.79735823152315  2.86594774417442  0.00600675487549
 6  0.63297556185619 -2.38655661406141 -1.47671996709671
 6  1.00431333363336 -1.15255248694869 -0.87851670057006
 6 -0.73319744844484 -2.61758012021202 -1.16931899459946
 6 -1.24647506950695 -1.44496480788079 -0.66075520552055
 6  3.76092455325533  1.40350351685168 -0.27118138493849
 6  2.41731383718372  0.86336816231623 -0.57727191219122
 6  2.17287253745375 -0.47729498739874 -0.87306678127813
 6  3.44343498359836  2.81376117831783  0.08339632993299
 6  1.68350975607561 -3.31734343564356 -1.97229457505751
 6 -5.51599050575058 -2.74837045194519  1.33274053835384
 6 -3.54634849414942 -1.84827980388039  0.23939987178718
 6  2.06622093419342  3.02586258045805  0.00018764216422
 6 -4.96113881018102 -1.57521648554856  0.49993403730373
 6  5.08675393729373  0.73412832973297 -0.44010296899690
 6 -2.58807362306231 -1.00309886528653 -0.31735820962096
 6 -1.46572623472347 -3.78117787088709 -1.84866518331833
 6 -4.40991065946595 -3.72007623942394  1.34683980958096
 6  2.11269240294029 -4.43042206590659 -1.05437466426643
 6  5.41330013241324 -0.07592571607161  0.85113766096610
 6  4.51652771407141  3.77675052435244  0.34828702900290
 6  1.24107278567857  4.11387593789379  0.36772849344934
 6 -6.75991064166417 -3.38633341314131  0.79836889898990
 6 -5.76506608720872 -0.53352913691369  0.03974114101410
 6 -0.11147906720672  3.99168741854185  0.28264007590759
 6 -1.04108920752075  5.16585411911191  0.52700116561656
 6 -2.32716218991899  4.67471897329733  0.22779868586859
 6  2.98735531753175 -4.13146581678168  0.05314300350035
 6 -5.33568727822782  0.43609889848985 -0.98827029182918
 6  6.82397227622762 -0.58379384898490  0.83409430763076
 6 -3.67692523542354  5.31526258475848  0.24074858555856
 6 -2.18258781038104  3.20706566756676 -0.10115588538854
 6 -0.67068765986599  6.54085975597560  0.93657270887089
 6 -4.42770233283328  5.52594855155515 -1.00859995149515
 1 -0.36685827072707  0.48761562736274 -0.04512425212521
 1  3.09281664266427 -0.99891803300330 -0.89844993239324
 1  2.43615349664966 -2.83832542914291 -2.34451099819982
 1  1.21323232943294 -3.68965307620762 -2.88761712181218
 1 -5.83391511881188 -2.45250387508751  2.30150068996900
 1  5.23935644814481  0.04387376877688 -1.29309965726573
 1  5.97435600300030  1.36786631473147 -0.63622719731973
 1 -2.80740695839584  0.15977376767677 -0.55187558505851
 1  0.64426165676568  1.69162900680068 -0.64214165966597
 1 -1.59040377617762 -4.66874144464447 -1.15624513431343
 1 -2.64354446544654 -3.46452703910391 -2.19313744684468
 1 -0.79953513341334 -4.27328439723972 -2.69684527382738
 1 -2.41995438173817 -3.68668839953995  0.81965463066307
 1  1.14549537883788 -4.96873957225723 -0.82641803170317
 1  2.62909901430143 -5.15778988588859 -1.61842722462246
 1  4.75875110811081 -1.03953511691169  0.97002673877388
 1  5.28542288768877  0.59198523722372  1.69388719181918
 1  4.32296282188219  4.80817123352335  0.02442107030703
 1  5.51173426512651  3.47606513971397 -0.00307451785179
 1  4.75929296189619  4.07520299239924  1.48799451635164
 1  1.77805858445845  4.99316849424942  0.85900697589759
 1 -7.63870543884388 -2.58972405590559  0.71490275987599
 1 -7.07240130403040 -4.23947032913291  1.35238107850785
 1 -6.73169886688669 -3.84583199929993 -0.11301921352135
 1 -6.72663718601860 -0.54476538503850  0.30731873297330
 1 -4.74075304740474  1.42824764566457 -0.48093535483548
 1 -6.28093647104710  0.96183525852585 -1.41815613171317
 1 -4.62610192219222  0.21642180438044 -1.86004276907691
 1 -3.37530951645165  6.38081248634863  0.73245012151215
 1 -4.47275871407141  4.72844517641764  0.84625065136514
 1 -0.01839098359836  6.59444000940094  1.97532737433743
 1 -1.61188729902990  7.03273672837284  0.96550590229023
 1 -0.04184501650165  7.27656994269427  0.21748270537054
 1 -3.79984789178918  6.19835746144614 -1.75627983048305
 1 -5.37069977717772  5.81269438553855 -0.79889976717672
 1 -4.64238771567157  4.51740191049105 -1.38164767276728
 1  3.76711511201120 -4.72711892439244  1.64292507490749
 1  8.12316034063406 -1.78600798979898  1.63760114311431

