%nproc=4
%Mem=2GB
# td=(NStates=1) B3LYP/SVP 

TD

0 1
 8 -4.19116062686269 -4.91148551975198  1.79488351675168
 8  3.14869889858986 -4.83774508130813  1.15592973027303
 8  6.76425272957296 -1.69047631733173  1.88976165566557
 8  3.78050310781078 -3.11101912691269 -0.13780712011201
 8  7.29645918251825 -0.88026792189219 -0.19467550025003
 8 -3.07991357745775  2.43621167196720 -0.45827738913891
 7 -0.26134312901290 -0.51393558665867 -0.57461447434743
 7  1.60704919761976  1.93682411491149 -0.38738031563156
 7 -3.17417940694069 -3.12766387938794  0.77978429702970
 7 -0.76718521422142  2.85695684508451 -0.02891673747375
 6  0.68765102940294 -2.40654861326133 -1.50238253335334
 6  0.95303820612061 -1.02876010771077 -0.87590643954395
 6 -0.66529065776578 -2.57119548174818 -1.29783184588459
 6 -1.28843926592659 -1.30595090649065 -0.81876100610061
 6  3.78496695749575  1.64094726122612 -0.27954222102210
 6  2.52560466626663  0.94265609110911 -0.51286547154715
 6  2.26032128232823 -0.40845810371037 -0.90470994559456
 6  3.50942158225823  2.85814561676168  0.06403439373937
 6  1.66962836793679 -3.40088178947895 -1.92058940454045
 6 -5.47956686338634 -2.88524413931393  1.34080134443444
 6 -3.50732459175918 -1.91609658555856  0.19572550435043
 6  2.06504081618162  3.12013200740074 -0.01226360296030
 6 -4.93645634193419 -1.62885184908491  0.52533657755776
 6  5.06531179307931  0.89662457935794 -0.30986994569457
 6 -2.65180999669967 -1.00002855825583 -0.35497197099710
 6 -1.41767142924292 -3.80345009810981 -1.84647496429643
 6 -4.27635730413041 -3.78228246004600  1.37622274787479
 6  2.03030416411641 -4.51441046474647 -1.00547977477748
 6  5.30503930633063 -0.07736586008601  0.92892543974397
 6  4.42838890019002  3.88153100240024  0.48872107240724
 6  1.19413809220922  4.13316786708671  0.34046576717672
 6 -6.72014666526653 -3.57640242004200  0.86652571467147
 6 -5.73105268586859 -0.48449423342334  0.17541470837084
 6 -0.20671859115912  3.96907515731573  0.24864667656766
 6 -1.07637273587359  5.20216775047505  0.46297476297630
 6 -2.31072054575458  4.72092359375938  0.29924583058306
 6  3.00854743674367 -3.99159182938294  0.03370105930593
 6 -5.38338204770477  0.56700198879888 -0.71377284208421
 6  6.61741162016202 -0.85331080068007  0.75738663686369
 6 -3.69989753265327  5.40587164566457  0.20044455515552
 6 -2.21233078467847  3.18831379237924 -0.12721849164916
 6 -0.65010560166017  6.50429609960996  0.84959401100110
 6 -4.26043560616062  5.55467142384238 -1.13058214971497
 1 -0.39470105500550  0.36878374417442  0.04014427472747
 1  3.03374073507351 -1.18023616481648 -0.83694378177818
 1  2.69297917921792 -2.74666626322632 -2.06372291939194
 1  1.28044905110511 -3.78481259215922 -2.79947830793079
 1 -5.54602632993299 -2.44168279297930  2.42569310921092
 1  5.18644115661566  0.37562694409441 -1.11973232053205
 1  5.81176974437444  1.69028855695570 -0.11995557015702
 1 -3.00971718941894 -0.08235044474447 -0.38397879537954
 1  0.48253548414842  1.93615345924592 -0.47111455695570
 1 -1.31133586938694 -4.77247181768177 -1.26978648844884
 1 -2.53247335833583 -3.68932951935194 -1.93124125722572
 1 -1.11237641754175 -4.00339740854086 -2.86825241454145
 1 -2.13688607490749 -3.32086181688169  1.14260692589259
 1  1.14596542584258 -4.92153485178518 -0.69346473637364
 1  2.57314341874187 -5.16594070097010 -1.42181756365637
 1  4.65754098709871 -0.88987015041504  0.97051678777878
 1  5.17732207760776  0.49798583728373  1.83882168526853
 1  3.99637016261626  5.11599201560156  0.32615124332433
 1  5.51907499919992  3.74122165536554 -0.14618882928293
 1  4.65098213081308  3.92159763186319  1.63009872677268
 1  1.82676345494549  5.25671484888489  0.53726480168017
 1 -7.64922649094909 -3.14976005950595  1.06722799239924
 1 -6.90089415331533 -4.47385376747675  1.52737857825783
 1 -6.56987268426843 -3.80038745484549 -0.18135604720472
 1 -6.75690021232123 -0.64156506500650  0.61831983308331
 1 -4.78133710581058  1.27303212411241 -0.16571383268327
 1 -6.25735411281128  1.01617069206921 -1.09124344044404
 1 -4.64819413141314  0.29766992919292 -1.38011477627763
 1 -3.64903688918892  6.34433883898390  0.76560343684368
 1 -4.21599303750375  4.51708404030403  0.80482650895089
 1 -0.11208035253525  6.50406097149715  1.71058089968997
 1 -1.54584069436944  7.11901535623562  0.96466581828183
 1 -0.01795262726273  7.07224951065107  0.26535749284929
 1 -3.64973288028803  6.33673129882988 -1.71675587808781
 1 -5.33186589378938  5.89845296139614 -0.92317219441944
 1 -4.10965444234423  4.68214838513851 -1.59297880588059
 1  3.94969336983698 -4.51613782628263  1.59803058545855
 1  7.51539956455646 -2.41009039803980  1.65380276327633

