%nproc=4
%Mem=2GB
# td=(NStates=1) B3LYP/SVP 

TD

0 1
 8 -4.37201871267127 -4.85179955115512  1.81439546794679
 8  3.10556458515852 -4.75856716351635  1.29457359465947
 8  7.05696200050005 -1.74491176087609  1.72533521302130
 8  3.66844190169017 -2.91069909490949  0.03943060366037
 8  7.55461499809981 -0.73218311341134 -0.23521955465547
 8 -2.98709429552955  2.45340339113911 -0.46324788618862
 7 -0.30118711341134 -0.46056024912491 -0.67232424532453
 7  1.58469696239624  1.91968240074007 -0.48761033863386
 7 -3.34870685968597 -3.16918803180318  0.64715103370337
 7 -0.71319981568157  2.99703085248525 -0.15195904170417
 6  0.70042230653065 -2.42948090649065 -1.25871816691669
 6  0.94243714601460 -1.08471570327033 -0.92519136803680
 6 -0.74040816951695 -2.61724008620862 -1.15069713241324
 6 -1.25748617061706 -1.50633094449445 -0.65961509150915
 6  3.72153061386139  1.58639180568057 -0.23764803160316
 6  2.49833193899390  0.92195402090209 -0.65681986698670
 6  2.19723497369737 -0.42398965686569 -0.82450192479248
 6  3.51347198729873  2.91928173037304  0.15441343164316
 6  1.65907731283128 -3.34461616291629 -1.95784312991299
 6 -5.51981088778878 -2.79169478437844  1.23687095139514
 6 -3.63580744004400 -1.88476345224522  0.09747567936794
 6  2.05640995309531  2.97446744094409 -0.05634801140114
 6 -5.01918461476148 -1.62504146804680  0.36864090799080
 6  5.05031029292929  0.86020093699370 -0.30321928062806
 6 -2.62264708040804 -1.06071462686269 -0.35579205300530
 6 -1.49017867996800 -3.85011476457646 -1.61366168296830
 6 -4.37940760916092 -3.65298953075308  1.42550767636764
 6  2.17524865856586 -4.46901592529253 -1.01851107790779
 6  5.44315311771177 -0.18001612511251  0.79579212641264
 6  4.47084314561456  3.88014086338634  0.45467766806681
 6  1.27150582898290  4.18902345264526  0.20804252485249
 6 -6.72982763336334 -3.57682246204620  0.72845190729073
 6 -5.84075365596560 -0.54771055505551  0.09764693159316
 6 -0.09711763106311  4.15629387918792  0.18739055095510
 6 -1.09454455305531  5.18244577827783  0.52991145664566
 6 -2.32259173287329  4.58711021242124  0.28306421242124
 6  3.00850743274327 -3.91471414161416  0.13684137333733
 6 -5.43783749324932  0.57577286588659 -0.78829029382938
 6  6.82869274827483 -0.86751222082208  0.74514541274127
 6 -3.75487303020302  5.19069012751275  0.38889340004000
 6 -2.09688924052405  3.21881684268427 -0.14795056485649
 6 -0.74216480758076  6.57455312531253  1.06536558815882
 6 -4.33305286788679  5.37430338703870 -0.91685077657766
 1 -0.50199178407841  0.46672353815381 -0.19711945164516
 1  2.96632399339934 -0.97669581078108 -0.89076916431643
 1  2.55657553885389 -2.81779337593759 -2.33012956005601
 1  1.01719272547255 -3.86997110801080 -2.81278963906391
 1 -5.81445317261726 -2.56068469316932  2.41202174207421
 1  5.17244975747575  0.28428781018102 -1.33520386768677
 1  6.01671023842384  1.44150367846785 -0.44996857145715
 1 -2.86184240194019 -0.00921313101310 -0.71744214171417
 1  0.70697792839284  2.05711555545555 -0.60122756825683
 1 -1.10586532233223 -4.75532010251025 -0.88870838063806
 1 -2.61457156815682 -3.71044163056306 -1.53298143124312
 1 -1.10379555945595 -4.19599666846685 -2.49317490679068
 1 -2.31575396169617 -3.35854558525853  0.71916458165817
 1  1.41752258155816 -5.08828152645265 -0.36654204410441
 1  2.78932503690369 -5.26004011091109 -1.59912529442944
 1  4.80593582658266 -1.02273343674367  0.86169590569057
 1  5.26986133153315  0.32314835353535  1.85249305240524
 1  4.49089961556156  4.72057247364736 -0.08632000380038
 1  5.44905799749975  3.42167970117012  0.49844563416342
 1  4.39158619121912  4.15458093019302  1.56317203410341
 1  1.81316209480948  5.17931710911091  0.68495957115712
 1 -7.58188975727573 -2.87370245374537  0.59524079367937
 1 -6.59109317321732 -4.58621500360036  1.25396123652365
 1 -6.65262095909591 -3.84992240834083 -0.31228914051405
 1 -6.86413093539354 -0.81734264276428  0.50682868396840
 1 -5.00462943504350  1.44591941284128 -0.25411267256726
 1 -6.41935031243124  1.03900297529753 -1.24201851795179
 1 -4.71838115011501  0.30278044024402 -1.77138390319032
 1 -3.66765875137514  5.92843724882488  0.88585546204620
 1 -4.26201763996400  4.36719905180518  0.92899892619262
 1 -0.25683482798280  6.34860542594259  2.14261410301030
 1 -1.57738384868487  7.27251070577058  1.08624797649765
 1 -0.00592142414241  6.91809409510951  0.51736269336934
 1 -3.82486039303930  6.11053867956796 -1.41405560806081
 1 -5.29606231343134  5.86197931403140 -0.92536241344134
 1 -4.37054053095310  4.51985215551555 -1.66294580258026
 1  3.74182258275828 -4.21267748024802  1.82524330673067
 1  7.93273129772977 -2.05441483048305  1.42688007100710

