%nproc=4
%Mem=2GB
# td=(NStates=1) B3LYP/SVP 

TD

0 1
 8 -4.35502701350135 -4.85072944414441  1.93495752415242
 8  3.26670069876988 -4.88078938573857  0.94502864016402
 8  6.88026433073307 -1.51470874057406  2.14062674217422
 8  3.69698475597560 -2.95481350635064 -0.36642998239824
 8  7.58112764936494 -0.42900279537954  0.19392335963596
 8 -3.07285287138714  2.34829288008801 -0.24385594699470
 7 -0.28448544324432 -0.51250544364436 -0.58843585648565
 7  1.49624811751175  1.83840427292729 -0.45764734233423
 7 -3.31439342834283 -3.10239135213521  0.77172349094910
 7 -0.78216671237124  2.91340248964896 -0.05436928272827
 6  0.63744600890089 -2.42142010041004 -1.47127942304230
 6  0.87177007930793 -0.99923715541554 -1.13114196309631
 6 -0.69108323702370 -2.61514987718772 -1.17980004270427
 6 -1.29305972797280 -1.41696200760076 -0.74938406840684
 6  3.74860332113211  1.50451361786179 -0.39852411921192
 6  2.46436854265427  0.87788961446145 -0.59037322232223
 6  2.23989924012401 -0.46089334723472 -0.98735821042104
 6  3.52196283638364  2.76207600980098  0.01938992929293
 6  1.60436184128413 -3.39858155945595 -2.00961830743074
 6 -5.51142004870487 -2.82349796469647  1.32023928822882
 6 -3.60526438573857 -1.89538451435143  0.22556848864887
 6  2.06857116921692  3.00414040824082 -0.06291866846685
 6 -4.97155985228523 -1.65434439833983  0.54418846274627
 6  5.08644390629063  0.75149006590659 -0.35459441814181
 6 -2.57751256695670 -1.16320487588759 -0.35684215801580
 6 -1.54936459855986 -3.82544229732973 -1.68410872767277
 6 -4.32030169856986 -3.81588582038204  1.33472859845985
 6  2.01535266896690 -4.57637666136614 -1.05041426822682
 6  5.29100790319032 -0.00801892539254  0.89338188538854
 6  4.51667772907291  3.84856770607061  0.30633283358336
 6  1.27863654205421  4.10416496679668  0.27339906050605
 6 -6.78426307690769 -3.43526830663066  0.69045810791079
 6 -5.80600018061806 -0.56424220822082  0.16327349424943
 6 -0.13316123542354  3.99074732453245  0.20122193409341
 6 -1.06133123172317  5.12633016671667  0.44495296079608
 6 -2.28969844354435  4.73811531293129  0.26432233823382
 6  3.04778136013601 -4.02122479267927 -0.14144645544554
 6 -5.38840254975498  0.51210649924993 -0.70653211801180
 6  6.68502838183818 -0.68064353395340  0.99540043824382
 6 -3.55358290119012  5.31478253675368  0.31537604830483
 6 -2.18253780538054  3.15337029802980 -0.04996076587659
 6 -0.56947753885389  6.54164983498350  0.79382843444344
 6 -4.19597916051605  5.59099505620562 -0.89721881338134
 1 -0.48265985088509  0.33628049384939 -0.11565130483048
 1  3.12824018501850 -1.19076721792179 -1.19614970237024
 1  2.39662954425443 -2.99593118971897 -2.30512705980598
 1  1.30684169036904 -4.00984509540954 -2.96070443054305
 1 -5.60730245754575 -2.58054667936794  2.55503604350435
 1  5.24548706120612 -0.08367898649865 -1.28814916221622
 1  6.03627219461946  1.32014154225423 -0.56674024862486
 1 -2.88230444814481 -0.06287849754976 -0.45810620812081
 1  0.42146937753775  1.69284912881288 -0.29897734323432
 1 -1.52271700750075 -4.57058162866287 -0.58767827762776
 1 -2.56560667166717 -3.65998658505851 -1.92549068216822
 1 -1.03529870977098 -4.32352942174217 -2.54931052035203
 1 -2.43108549484949 -3.38272800350035  0.58238090329033
 1  1.26410724002400 -4.77911060936094 -0.11770716061606
 1  2.45525162956296 -5.60292439933993 -1.42070745264526
 1  4.52764799779978 -0.71340250365036  0.86040577667767
 1  5.06099044444444  0.55510154885489  1.91494929802980
 1  4.66372689828983  4.81881229762976 -0.01207257905791
 1  5.52193528522852  3.65186271947195  0.22324811441144
 1  4.52403943654365  4.03402887498750  1.45823154005401
 1  1.79969074767477  5.08843802120212  0.57850892609261
 1 -7.57414898319832 -2.75618070157016  0.80214148374838
 1 -6.94567863176318 -4.27108349044904  1.26083192359236
 1 -6.65536123312331 -3.59082649874988 -0.48201611321132
 1 -6.81803632593259 -0.83226413491349  0.56691469256926
 1 -5.01851082318232  1.44385920682068 -0.13503076437644
 1 -6.36242461986199  0.95131420642064 -1.24593890999100
 1 -4.76626593859386  0.27051721392139 -1.50541730653065
 1 -3.36106809230923  6.29926433153315  0.99372624912491
 1 -4.19511094929493  4.80768310021002  0.88022404870487
 1 -0.48343748824882  6.82037260266027  2.07221706330633
 1 -1.58990510081008  7.16064951965197  0.42152150385038
 1  0.47420658865887  6.96534882058206  0.25295625272527
 1 -3.77358526552655  6.38721634733473 -1.30101430393039
 1 -5.16296900410041  6.11541465756576 -0.68413829102910
 1 -4.27681115801580  4.72305247554756 -1.54996450445045
 1  3.77311571207121 -4.32111832433243  1.72651343374337
 1  7.72472049664966 -1.68584797379738  2.34262164516452

