%nproc=4
%Mem=2GB
# td=(NStates=1) B3LYP/SVP 

TD

0 1
 8 -4.30942245304530 -4.99983435463546  1.83716774517452
 8  3.07871189988999 -4.62214352115211  1.17162129942994
 8  6.98424472877288 -1.68425569526953  1.81428410791079
 8  4.04136919441944 -3.07600562556256 -0.25797913731373
 8  7.70242977957796 -0.33085298039804  0.06003997129713
 8 -3.03593918001800  2.40400845164516 -0.65513707510751
 7 -0.25261225592559 -0.53680787388739 -0.75508252115212
 7  1.46286477917792  1.83541397389739 -0.23153473107311
 7 -3.32174416341634 -3.24423553655366  0.64086040464046
 7 -0.85748424412441  2.93798494789479 -0.04431827762776
 6  0.62423468776878 -2.36616457485749 -1.47812010711071
 6  0.93925682798280 -1.09226645834583 -1.11053990289029
 6 -0.75800992969297 -2.55037339953995 -1.42504456715672
 6 -1.37100752275228 -1.38672898429843 -0.88484761476148
 6  3.76661512231223  1.45687885438544 -0.21992625942594
 6  2.44153625942594  0.83654548004800 -0.44299848484848
 6  2.14049930013001 -0.45993325122512 -0.91565103970397
 6  3.44926556665667  2.78320812301230  0.19250724102410
 6  1.59823122822282 -3.43551525282528 -1.96820416601660
 6 -5.53570247694770 -2.80178579347935  1.45585284958496
 6 -3.61150500980098 -1.92161713761376  0.22651858365837
 6  2.10000431253125  3.01601159535954  0.19845746914691
 6 -5.03821651795180 -1.61685064896490  0.64348839273927
 6  5.13601886378638  0.73918883578358 -0.28816777547755
 6 -2.68141295699570 -1.14274282968297 -0.46372284608461
 6 -1.34939460156016 -3.81425117821782 -1.87967828462846
 6 -4.43369303770377 -3.93339757155716  1.36079120472047
 6  2.01617275097510 -4.40277930163016 -0.93624285108511
 6  5.31517031943194 -0.26343446694669  0.77166971417142
 6  4.56436249754976  3.86600945024502  0.44526672697270
 6  1.22374105250525  4.04605915621562  0.44463618421842
 6 -6.90686533713371 -3.39778455825583  1.02729179127913
 6 -5.74686426702670 -0.62142792679268  0.27833500040004
 6 -0.11279919921992  4.02553080288029  0.32982479437944
 6 -1.06566166476648  5.12242977667767  0.57153561906191
 6 -2.26895636933693  4.65558706010601  0.23259916591659
 6  3.16261284328433 -3.93349601980198 -0.07023933473347
 6 -5.47418112761276  0.51738702730273 -0.56381784658466
 6  6.78147802680268 -0.66845231483148  0.86729762796280
 6 -3.68023556645665  5.48927998649865  0.16078058875888
 6 -2.18322787438744  3.19596455745575 -0.13670944074407
 6 -0.61992258335834  6.59554522452245  0.82536158775878
 6 -4.19562912551255  5.74264022072207 -1.29170826232623
 1 -0.38057964286429  0.31602846864686 -0.22755249494949
 1  2.89622698369837 -1.12120026122612 -1.15422550995100
 1  2.41239112041204 -2.82420401700170 -2.37420396749675
 1  1.02491349754975 -3.95761987288729 -2.85123348344834
 1 -5.60003173047305 -2.67290591529153  2.71483202310231
 1  5.22055456795680  0.20325970737074 -1.21710205750575
 1  5.92170073747375  1.38715824392439 -0.56301987658766
 1 -2.54664088178818 -0.06237844754475 -0.22941333883388
 1  0.37456468706871  1.75984582848285 -0.19202664816482
 1 -1.29833456925693 -4.60149471997200 -1.05282479227923
 1 -2.51677178817882 -3.76193678007801 -1.95984411751175
 1 -0.79874505440544 -3.98862593139314 -2.87301289058906
 1 -2.43595598189819 -3.75054478517852  0.70336300150015
 1  1.14946577587759 -4.59028172647265 -0.31252664256426
 1  2.32386849124913 -5.50917502440244 -1.35596097799780
 1  4.67460269326933 -1.17768893229323  0.53641337743774
 1  4.89754409980998 -0.04680864216422  1.93202100520052
 1  4.35604613021302  4.66979739613961 -0.35044641644164
 1  5.39546263796380  3.13935146834683  0.49667545714571
 1  4.18391542414241  4.54405987808781  1.33412912981298
 1  1.90422120072007  4.85838501590159  0.66751782698270
 1 -7.75335690399040 -2.46360144364436  1.17272854245424
 1 -7.20710477437744 -4.09882626472647  1.99573541394139
 1 -7.20547624462446 -3.70461787788779  0.09655174357436
 1 -6.71858638093809 -0.78865977447745  0.63454145524552
 1 -4.83396236833683  1.27297211811181 -0.03948120942094
 1 -6.43780215761576  1.08445752075207 -0.80390470657066
 1 -4.78053736573657  0.26391655385539 -1.32757952275227
 1 -3.76212819831983  6.18860326542654  0.93081995849585
 1 -4.45165660386039  4.69202153405341  0.42371839813981
 1  0.01098195369537  6.63664422982298  1.80426026762676
 1 -1.49046515681568  7.07832128682868  0.88991834353435
 1 -0.04974580658066  7.00517280298030 -0.10766980988099
 1 -3.75671357835784  6.71454908060806 -1.75661986448645
 1 -5.20660336753675  6.24653776987699 -1.17410728792879
 1 -4.25368884578458  4.84752492279228 -1.94245375337534
 1  3.79663806430643 -4.23045925842584  1.61991277367737
 1  7.95957398199820 -1.93216260526053  1.72129951295130

