%nproc=4
%Mem=2GB
# td=(NStates=1) B3LYP/SVP 

TD

0 1
 8 -4.04462597339734 -4.92249662086209  1.82445647404740
 8  2.79289331803180 -4.64037534433443  1.24103824112411
 8  6.92555886018602 -1.40490776047605  1.96241892139214
 8  3.72598765626563 -3.05136316131613 -0.07362070147015
 8  7.41948148474848 -0.78073796889689 -0.17476350905091
 8 -3.01611719781978  2.28021607240724 -0.40339190059006
 7 -0.20404739943994 -0.45886007910791 -0.61173818671867
 7  1.54778327102710  1.78602903540354 -0.26165774337434
 7 -3.27432942194219 -3.14571568456846  0.67289360796080
 7 -0.76114461016102  2.90866201560156 -0.08505235103510
 6  0.59914217851785 -2.39503746214621 -1.49075137023702
 6  0.88901180348035 -1.01511874357436 -1.00276912581258
 6 -0.82884701340134 -2.56171453365337 -1.25227729042904
 6 -1.24749517151715 -1.38964927632763 -0.64935406540654
 6  3.84962342314231  1.43686685318532 -0.39494376117612
 6  2.48375048084808  0.81446327182718 -0.56704088908891
 6  2.25847109730973 -0.40647790569057 -0.94010348494849
 6  3.51221186128613  2.79399920212021 -0.00155216491649
 6  1.56825823092309 -3.45189689098910 -2.02822016761676
 6 -5.43084199089909 -2.89273488838884  1.23603086738674
 6 -3.56494035333533 -1.81153612951295  0.15276120792079
 6  2.10931524362436  2.95483547774777  0.06921454485449
 6 -5.00155285158516 -1.65709467336734  0.54703874777478
 6  5.16343160506051  0.83751866876688 -0.33007196589659
 6 -2.60705552125213 -0.97987654305431 -0.23085955975598
 6 -1.53274293639364 -3.68960871397140 -1.75943626042604
 6 -4.16137580598060 -3.79950418221822  1.29302442804280
 6  2.11769290299030 -4.49435845954595 -1.04793402020202
 6  5.35252405480548  0.04070594709471  0.94003655085509
 6  4.56258231953195  3.81301415071507  0.47532973327333
 6  1.29739841824182  4.08175272557256  0.27455917651765
 6 -6.75687033763376 -3.51223600340034  0.79390845294529
 6 -5.76738631923192 -0.63491927592759  0.13908107500750
 6 -0.13648156745675  4.08803705350535  0.27667947984798
 6 -1.06701179977998  5.16765429912991  0.45951441694169
 6 -2.40548002170217  4.58279978137814  0.33196910291029
 6  2.90487706970697 -3.91359402960296  0.08661635083508
 6 -5.42647635713571  0.56322161076108 -0.77076854165417
 6  6.68730860986099 -0.85382085168517  0.75217611581158
 6 -3.73465100800080  5.20356141464146  0.32367687838784
 6 -2.12735228682868  3.14841980298030 -0.13098886868687
 6 -0.69147973907391  6.57721339133913  0.87023607520752
 6 -4.20146970957096  5.65558151485148 -1.06964605610561
 1 -0.42650423532353  0.38968583438344 -0.21514125382538
 1  3.15069243024302 -1.12186032723272 -1.13854394179418
 1  2.29571945324532 -2.73213481008101 -2.50653720082008
 1  1.14045505170517 -3.83855796669667 -2.69469782988299
 1 -5.68434016131613 -2.47031565626563  2.37969850975098
 1  5.39763227572757  0.14159354075408 -1.27452780008001
 1  6.05453402080208  1.59926945504550 -0.27740131473147
 1 -2.71483770147015  0.16141393169317 -0.38632903040304
 1  0.55169239983998  1.83625346924692 -0.45580302580258
 1 -1.57276201200120 -4.39094366486649 -1.07828733853385
 1 -2.51902201320132 -3.45281586798680 -2.20231836493649
 1 -0.99537471737174 -4.12364943374337 -2.76203179247925
 1 -2.28854124042404 -3.47804753545355  0.59573223842384
 1  1.36205703500350 -5.11214391269127 -0.69387477737774
 1  2.97869397379738 -5.02278638553855 -1.65000038193819
 1  4.43063829682968 -0.76243740714071  1.20519025512551
 1  5.36661100650065  0.83612965166517  1.71420922402240
 1  4.23184370997100  4.86512692909291 -0.09220059185919
 1  5.58201129282928  3.73222075527553  0.29493528312831
 1  4.70247728032803  3.93610908300830  1.60542625952595
 1  1.64775555415542  4.98717789518952  0.48625970117012
 1 -7.41728329662966 -2.74458954245425  1.18023929352935
 1 -7.05067913181318 -4.42540892299230  1.47566340674067
 1 -6.77221291829183 -3.66867428352835 -0.30103801540154
 1 -6.79995451775178 -0.61991289978998  0.50155815691569
 1 -4.84477344944495  1.34188900980098 -0.24126138743874
 1 -6.46552492989299  0.98829790479048 -1.08631294739474
 1 -5.08511782378238  0.10656081828183 -1.64698146294629
 1 -3.49517150265026  5.79213361846185  1.10987786428643
 1 -4.38112955115512  4.46000833273327  0.85339136543654
 1 -0.26840598509851  6.79682024742474  1.84348419001900
 1 -1.43373948424842  7.42165562026203  0.65828518021802
 1 -0.04990582258226  6.88206049174918  0.08334929202920
 1 -3.56324423142314  6.46316394209421 -1.32649685218522
 1 -5.27009971717172  5.95822893899390 -0.78356823402340
 1 -3.99980345724572  4.60848101840184 -1.59760926892689
 1  3.33319171967197 -4.27315352785279  1.94944572697270
 1  7.85302332693269 -1.79942933193319  1.70993837683768

