%nproc=4
%Mem=2GB
# td=(NStates=1) B3LYP/SVP 

TD

0 1
 8 -4.19281079187919 -4.89668403960396  1.85562959135914
 8  2.97306133483348 -4.76300760756076  1.13735787308731
 8  6.88814511881188 -1.68381565126513  1.83558623812381
 8  3.85559061656166 -3.14606263126313 -0.05562890229023
 8  7.57651718831883 -0.55996589168917 -0.07209324202420
 8 -3.04986057215722  2.33268131893189 -0.34672623402340
 7 -0.34125111981198 -0.45164935803580 -0.70960797369737
 7  1.50785927862786  1.78473890639064 -0.20859243684368
 7 -3.25055704470447 -3.11414252725273  0.67003332193219
 7 -0.73312180788079  2.93051420082008 -0.17136098189819
 6  0.65508777307731 -2.36883484188419 -1.39865216031603
 6  0.92858576087609 -1.09050628232823 -1.01891073997400
 6 -0.76694082278228 -2.54643300550055 -1.31443350605061
 6 -1.29916033803380 -1.37175748714872 -0.76834596459646
 6  3.80648910971097  1.54121728822882 -0.27182144894489
 6  2.53419552535254  0.84620644614461 -0.49525371037104
 6  2.20403565376538 -0.47802506040604 -0.83584305890589
 6  3.60806144624462  2.82714251645164  0.03688167846785
 6  1.60163156825683 -3.34135583688369 -2.00721806740674
 6 -5.44555346204620 -2.71945756065607  1.31814907920792
 6 -3.56384024332433 -1.78348332423242  0.24775070687069
 6  2.13143745584558  3.05951594579458  0.07035465886589
 6 -5.04500719701970 -1.59985894979498  0.43360740464046
 6  5.13788905080508  0.83374829172917 -0.33165212391239
 6 -2.62105692139214 -0.96609516491649 -0.36189266306631
 6 -1.54236389848985 -3.78081783488349 -1.77636795359536
 6 -4.33939360776078 -3.79090332213221  1.30929605520552
 6  2.02944407810781 -4.47535655935594 -1.04577380418042
 6  5.40937974037404 -0.04217234073407  0.87415996319632
 6  4.54162022332233  3.95932878217822  0.35778797909791
 6  1.32092077047705  4.09658420872087  0.27222894349435
 6 -6.76798144874487 -3.53613839363936  0.83854291639164
 6 -5.77114669526953 -0.52464824882488  0.13595076197620
 6 -0.17347526682668  3.98257650745074  0.29149096099610
 6 -1.15245034363436  5.09389692339234  0.49095756125613
 6 -2.35725519921992  4.60390189158916  0.28759466546655
 6  3.03565014701470 -4.04625729592959  0.06601429062906
 6 -5.44484819431943  0.62082737133713 -0.71020248504850
 6  6.76620649964997 -0.74619008860886  0.81228212641264
 6 -3.73006054895490  5.22691374987499  0.30255476617662
 6 -2.17574712631263  3.14593955495550 -0.14350011981198
 6 -0.68891948304830  6.46647231723172  0.95864491609161
 6 -4.30804036663666  5.45253120982098 -1.17039613111311
 1 -0.46780836573657  0.59087595339534 -0.42961270097010
 1  3.13250061106111 -0.95517365856586 -0.87046713411341
 1  2.50832071337134 -2.78149974657466 -2.25263181028103
 1  1.19851085728573 -3.90365447634763 -2.92977133723372
 1 -5.37768949624962 -2.49892851755176  2.46425696559656
 1  5.02822533503350  0.02066144754475 -1.22956330363036
 1  5.98394696209621  1.51120064816482 -0.39814338893889
 1 -2.94010022772277  0.09231702200220 -0.62453285078508
 1  0.33810104070407  1.99384922882288 -0.12551999749975
 1 -1.32863759955996 -4.50219478997900 -0.93063257305731
 1 -2.58644875587559 -3.72480306670667 -1.84804293739374
 1 -1.07767294719472 -4.25441251005100 -2.59251484078408
 1 -2.42169455575558 -3.44506423712371  0.84811747694770
 1  1.20121095039504 -4.83128582688269 -0.53538892879288
 1  2.64109021342134 -5.20643475037504 -1.54962034393439
 1  4.60295552855286 -0.88519968336834  0.96476621272127
 1  5.36427077247725  0.66139217791779  1.76270407350735
 1  4.05867639323932  4.90433084948495 -0.15871724352435
 1  5.62707579927993  3.52377991119112  0.07881367096710
 1  4.43607063966397  4.04149962206221  1.42997871477148
 1  1.65513629222922  5.03499267666767  0.51721279647965
 1 -7.59361092939294 -2.91083616711671  0.46493776337634
 1 -7.00861492539254 -4.18610499259926  1.81924776517652
 1 -6.31622731973197 -4.40764818091809  0.04607669606961
 1 -6.72131665396540 -0.60754166266627  0.69409741084108
 1 -5.08240721282128  1.44674949584959  0.04194693339334
 1 -6.22594097149715  1.07003607860786 -1.28294261036104
 1 -4.79289860186019  0.38560872307231 -1.46534329912991
 1 -3.54255624112411  6.24789919501950  0.79226610311031
 1 -4.54954639283928  4.72066439833983  0.91774780108011
 1 -0.38437758225823  6.44777534293429  2.18939878147815
 1 -1.55545165546555  7.33732718741874  0.81445079677968
 1  0.08783795179518  6.88574085978598  0.36762771987199
 1 -3.65058296529653  6.35740336603660 -1.71033523602360
 1 -5.35389809700970  5.89256237233723 -1.20495037223722
 1 -4.37210068696870  4.50414058435844 -1.76418592659266
 1  3.64809320982098 -4.34062027452745  1.72467324972497
 1  7.74167219181918 -2.03438282728273  1.60115749874987

