%nproc=4
%Mem=2GB
# td=(NStates=1) B3LYP/SVP 

TD

0 1
 8 -4.16526803760376 -4.72846721792179  2.04946897529753
 8  3.05210923962396 -4.88633994079408  0.98023216051605
 8  7.01963826812681 -1.45131240094009  1.87510018951895
 8  3.95109016651665 -3.15028305330533 -0.07342068146815
 8  7.51226076267627 -0.54756465156516 -0.08874490719072
 8 -3.18851443754375  2.40766881768177 -0.26666822822282
 7 -0.30506750145015 -0.57194138723872 -0.45828284118412
 7  1.60421891459146  1.82885331783178 -0.34249582718272
 7 -3.31646363536354 -3.11683279627963  0.64248056665667
 7 -0.77111560726073  2.91987313671367 -0.06122996879688
 6  0.70991325562556 -2.33121107950795 -1.43199549464947
 6  0.90203310561056 -1.01874910661066 -0.89271812071207
 6 -0.67326145484548 -2.59497785998600 -1.26058812151215
 6 -1.28882930493049 -1.43715402680268 -0.69552868286829
 6  3.73912237303730  1.48718188468847 -0.20478474527453
 6  2.50998310411041  0.89063088858886 -0.57757194219422
 6  2.15708095829583 -0.41044830273027 -0.88802827742774
 6  3.56384702480248  2.79226902910291  0.11727971827183
 6  1.69207061216122 -3.30502220352035 -2.10658800440044
 6 -5.51573047974798 -2.76603221812181  1.23075033933393
 6 -3.65674953425343 -1.82115709160916  0.18021395319532
 6  2.12167647974797  2.97802779697970  0.02567019041904
 6 -5.09787248354835 -1.61885084898490  0.44536858075808
 6  5.11821708360836  0.73497841474147 -0.29875883458346
 6 -2.73095791149115 -1.04600315571557 -0.41502797659766
 6 -1.54574423652365 -3.78502825592559 -1.68368868566857
 6 -4.27143681208121 -3.71442567436744  1.36901202680268
 6  2.18639977367737 -4.48415743944394 -1.08170739753975
 6  5.37627643004300 -0.18695681918192  0.88882142934293
 6  4.45331139243924  3.90838368766877  0.55932813311331
 6  1.28874755315532  4.14909946024602  0.32273399399940
 6 -6.92380703130313 -3.42435721552155  0.84376343844384
 6 -5.90179976057606 -0.55822160616062  0.02485965286529
 6 -0.13970188948895  4.06885513531353  0.17652946484648
 6 -1.03688878747875  5.14516204990499  0.34754321982198
 6 -2.32729220292029  4.62726422782278  0.32479838583858
 6  3.13515009700970 -4.05401807200720 -0.00752306310631
 6 -5.46843055255526  0.56978226682668 -0.83319478427843
 6  6.67219709870987 -0.73368883848385  0.78604950315032
 6 -3.63812135503550  5.23327438593859  0.40923543424342
 6 -2.20071962356236  3.17222218321832 -0.10532630243024
 6 -0.66257684878488  6.50766643664366  0.74182323392339
 6 -4.23176273887389  5.31887784448445 -1.04720381188119
 1 -0.48045963086309  0.38244511031103 -0.18571831153115
 1  3.14063142414241 -0.95624376557656 -0.98533862126213
 1  2.58186806810681 -2.75958755535554 -2.64281082818282
 1  1.13834484068407 -4.00069418031803 -2.95796415651565
 1 -5.76613834113411 -2.42430105480548  2.22117265716572
 1  5.11969448194820  0.00950033143314 -1.35974632193219
 1  5.78339690709071  1.50405993409341 -0.50189376397640
 1 -2.99284550225022  0.01034882518252 -0.67708810631063
 1  0.54253148374837  1.73722356625663 -0.48606605210521
 1 -1.56791152695270 -4.80670524102410 -1.13453296309631
 1 -2.62872298329833 -3.23667425382538 -1.77790592369237
 1 -1.28860404030403 -4.01519858865887 -2.75710129942994
 1 -2.35190757705771 -3.39958968966897  0.54101676687669
 1  1.37966879617962 -5.18424112241224 -0.65589097899790
 1  2.74572067646765 -5.27121122802280 -1.80264564646465
 1  4.61046627962796 -0.94136529992999  0.87868760486049
 1  5.51686603200320  0.29550558925893  1.80673847694770
 1  4.34851537713771  4.91685210161016 -0.01127249904990
 1  5.63830692239224  3.64026155935594  0.40753654325433
 1  4.34777180978098  4.09012448454846  1.60539625652565
 1  1.88976975557556  5.19888906630663  0.55078615381538
 1 -7.67942951125112 -2.74779986348635  0.83732500210021
 1 -7.10044410831083 -4.27616399849985  1.43513935433543
 1 -6.67938363536354 -3.77169458555856 -0.10021793339334
 1 -6.80426494879488 -0.39991089958996  0.38095609670967
 1 -4.73919289138914  1.33044786568657 -0.22598986028603
 1 -6.34616299369937  1.18831790679068 -1.42050636673667
 1 -4.83079239123912  0.30577073927393 -1.62463922872287
 1 -3.73448543404340  6.27106151125113  0.82212908940894
 1 -4.25980741894189  4.56687901980198  1.18032405870587
 1  0.01323217871787  6.45585615101510  1.76592643424342
 1 -1.55587169746975  7.32682613731373  0.84738409010901
 1 -0.01107193919392  6.92700498619862  0.05998695579558
 1 -3.64279218621862  5.79192681838184 -1.70666486898690
 1 -5.23657636483648  5.77439055515552 -0.89002888008801
 1 -4.67806128302830  4.43346351665167 -1.37999750775078
 1  3.58642704320432 -4.35682189468947  1.78890967336734
 1  8.11048907350735 -1.80411980098010  1.99328671167117

