%nproc=4
%Mem=2GB
# td=(NStates=1) B3LYP/SVP 

TD

0 1
 8 -4.31531304210421 -4.88581295249525  1.76370039843984
 8  3.16009003770377 -4.81287259405941  1.00235437273727
 8  6.82719902420242 -1.64795206490649  1.91653433293329
 8  4.02856791429143 -3.25906393139314 -0.26291963136314
 8  7.66268580518052 -0.41663155825583  0.10838480578058
 8 -2.91950753685369  2.31284933573357 -0.26243780518052
 7 -0.33517051175118 -0.50776496959696 -0.64778179107911
 7  1.56793528622862  1.82600303280328 -0.33681525912591
 7 -3.27282927192719 -3.08051916491649  0.84380069866987
 7 -0.74528302400240  2.94328547794779 -0.07225107090709
 6  0.59945220952095 -2.33783174157416 -1.48950124522452
 6  0.88990189248925 -1.05158238993899 -1.00974982388239
 6 -0.77697182588259 -2.60151851405140 -1.28595065776578
 6 -1.42347276927693 -1.42565287668767 -0.57969709970997
 6  3.72150061086109  1.52947611411141 -0.28277254405441
 6  2.52665477127713  0.86549837533753 -0.45209939493949
 6  2.22758800900090 -0.37405466336634 -0.82982245684568
 6  3.52803344344434  2.80788059025903  0.08766675697570
 6  1.55425683078308 -3.31792349364937 -2.07317466306631
 6 -5.51743064976498 -2.81933754865487  1.26320358465847
 6 -3.63445730503050 -1.86630160606061  0.37239317111711
 6  2.04369868196820  3.06191618581858 -0.03385576217622
 6 -5.02882557885789 -1.63164212811281  0.52845688958896
 6  5.03045830773077  0.78604352125213 -0.39281824052405
 6 -2.70029484518452 -0.97041559695970 -0.23548002180218
 6 -1.62870253235324 -3.73538329142914 -1.67677799459946
 6 -4.39420908930893 -3.75241947374737  1.25640076567657
 6  2.11852298599860 -4.45737476117612 -1.05337456425643
 6  5.40182898529853 -0.15120324382438  0.82895544274427
 6  4.58406446774678  3.81270411971197  0.53724592489249
 6  1.27323600200020  4.20421497179718  0.26020774137414
 6 -6.88663331393139 -3.45376015581558  0.79679874197420
 6 -5.73775335593559 -0.58666445044504  0.06616378327833
 6 -0.17874579387939  4.07858610841084  0.26314812671267
 6 -1.08035313391339  5.17080461416142  0.41627009250925
 6 -2.26265573927393  4.62443394479448  0.16028193419342
 6  3.21138772077208 -4.09002167236724 -0.16663897469747
 6 -5.44297800730073  0.65466075467547 -0.70123158795880
 6  6.81604148314832 -0.70600607020702  0.94187508570857
 6 -3.58626616951695  5.22178323682368  0.24919943064306
 6 -2.06318587018702  3.15242020302030 -0.05523129292929
 6 -0.67592818391839  6.63900957095710  0.66944599619962
 6 -4.39768933153315  5.23442939963996 -1.06336542804280
 1 -0.64740632553255  0.50912777857786 -0.37124686438644
 1  3.03189055005500 -0.95596373757376 -1.12080216761676
 1  2.39562944424442 -3.00985258185819 -2.46905345244524
 1  1.07030803700370 -3.86899101000100 -2.70967932803280
 1 -5.64529625692569 -2.59927855255526  2.38983952385239
 1  4.95859837233723  0.12695207660766 -1.27448779607961
 1  5.71796036343634  1.64158368646865 -0.49666324092409
 1 -2.91932815051505  0.21595938623862 -0.44033443094309
 1  0.52981021162116  2.01854169806981 -0.61181862736274
 1 -1.65983071887189 -4.79701427192719 -1.09953946374637
 1 -2.67539765076508 -3.57777836423642 -1.66909504260426
 1 -1.39237441734173 -4.05580264906491 -2.55596118541854
 1 -2.20405279157916 -3.47300703140314  0.87075974117412
 1  1.31895272457246 -4.64263696199620 -0.19693508340834
 1  2.53155926032603 -5.37232133903390 -1.54005938783878
 1  4.64629986298630 -0.92081324472447  0.83724346044604
 1  5.17812215761576  0.35628166686669  1.85530333343334
 1  4.44601512711271  4.75287570397040 -0.00360173197320
 1  5.68076116781678  3.62448998219822  0.62430822042204
 1  4.33863089568957  4.11176664876488  1.68689440634063
 1  1.77636841544154  5.24700387778778  0.55214628982898
 1 -7.58868043634364 -2.89695477897790  1.01841311091109
 1 -7.23896796069607 -4.53218960106011  1.39718555895590
 1 -6.82665836283628 -3.56769418551855 -0.22550046164616
 1 -6.82131665396540 -0.56721763026303  0.51748975007501
 1 -5.10074904700470  1.44224904580458 -0.04801206250625
 1 -6.42193057045705  1.19133820882088 -1.20043435953595
 1 -4.55293460546055  0.61864202640264 -1.26031279607961
 1 -3.57404939043904  6.02682708780878  0.84261113761376
 1 -4.19300073827383  4.69956228812881  0.86063208950895
 1 -0.24200334483448  6.75841640704070  1.75960580218022
 1 -1.44634074437444  7.26704015871587  0.63627297899790
 1  0.19977914591459  6.98389067476748 -0.05929497239724
 1 -3.81512941994199  5.91160878657866 -1.81099530203020
 1 -5.45173788098810  5.50143325942594 -0.84062393959396
 1 -4.47695117201720  4.21024119441944 -1.42140164816482
 1  3.91295969646965 -4.45944215671567  1.44019480188019
 1  7.71833985858586 -1.94907429642964  1.92225960896090

