%nproc=4
%Mem=2GB
# td=(NStates=1) B3LYP/SVP 

TD

0 1
 8 -4.31571308210821 -4.96744111531153  1.70433446184618
 8  2.96341036973697 -4.80823213001300  1.05791992929293
 8  7.01927823212321 -1.49588685838584  2.06274895439544
 8  3.81561661916192 -3.12984100910091 -0.19946328572857
 8  7.63663319991999 -0.64140403550355  0.09652361966197
 8 -3.06711229732973  2.39783783458346 -0.28011957335734
 7 -0.19526652135214 -0.46445063816382 -0.56801381428143
 7  1.52760125282528  1.90418085058506 -0.56141771937194
 7 -3.30819280828083 -3.12772388538854  0.57393371197120
 7 -0.72393088878888  2.87391854125413 -0.07516136193619
 6  0.63891615591559 -2.31538949734973 -1.45613790889089
 6  0.94154705700570 -1.02080931263126 -0.96996584548455
 6 -0.75303943264326 -2.56990535273527 -1.22718478117812
 6 -1.33802422442244 -1.36085639703970 -0.70186931693169
 6  3.81959041984198  1.51363452995300 -0.37226149294930
 6  2.49546165196520  0.92214403990399 -0.72347653265327
 6  2.26204145434543 -0.40832809070907 -0.98138761336134
 6  3.52791343144314  2.83321312351235  0.08266625692569
 6  1.62321372647265 -3.39475117641764 -1.94799214481448
 6 -5.44718362506251 -2.80046566146615  1.38295555985599
 6 -3.57075093439344 -1.89356433233323  0.23214914671467
 6  2.15191950405040  3.07068706290629 -0.03958633523352
 6 -4.92091478777878 -1.59108807270727  0.53512755665567
 6  5.08502376427643  0.85468038493849 -0.41887084578458
 6 -2.59922473817382 -0.99390794619462 -0.33616008980898
 6 -1.44651431353135 -3.81775152825283 -1.68909922672267
 6 -4.31129079747975 -3.78136236803680  1.28332345794579
 6  1.94760589428943 -4.48008703240324 -1.01992121892189
 6  5.33288209060906 -0.06241436493649  0.77251979917992
 6  4.50652671397140  3.81192404170417  0.57800000030003
 6  1.25137381578158  4.11749629992999  0.30125184578458
 6 -6.85346999759976 -3.32710749054905  1.00275933803380
 6 -5.72244182478248 -0.52497828182818  0.23911107800780
 6 -0.17713563286329  4.02416066586659  0.27565937783778
 6 -1.13245834443444  5.07450498419842  0.50790925642564
 6 -2.32338181188119  4.54176567796780  0.29863576957696
 6  3.06486306830683 -3.99304197439744  0.01394908410841
 6 -5.37446115561556  0.43967925652565 -0.81088255305531
 6  6.76604648364837 -0.81013648324832  0.85810670887089
 6 -3.71585912881288  5.22988404690469  0.32812732343234
 6 -2.16941649324932  3.14287924892489 -0.08904467426743
 6 -0.73689428052805  6.54817048704871  0.82603165476548
 6 -4.35001456405641  5.56590254695470 -1.08985807730773
 1 -0.15652723762376  0.41429829562956 -0.11261100080008
 1  3.02051941294129 -1.19013715491549 -1.03671375877588
 1  2.41836171747175 -2.87952954955496 -2.14410095719572
 1  0.95769677587759 -3.83824793569357 -2.82533089318932
 1 -5.57276900420042 -2.63561218591859  2.35280582048205
 1  5.07656016851685  0.22710209160916 -1.24441478877888
 1  6.13788235563556  1.33566309440944 -0.65541911651165
 1 -2.87183340104010 -0.06052826252625 -0.52868326582658
 1  0.61660889148915  1.90986082998300 -0.71291873737374
 1 -1.67737247304730 -4.60256482698270 -0.88609811961196
 1 -2.54109422042204 -3.64217480388039 -2.02167030013001
 1 -0.92120730063006 -4.27266433523352 -2.52190778007801
 1 -2.41730411671167 -3.56094582528253  0.63886655185518
 1  0.86784761406141 -4.78601129942994 -0.44039942984298
 1  2.49051515591559 -5.28328243514351 -1.44896027792779
 1  4.44296952995299 -0.86894805820582  1.01497123322332
 1  5.42439678507851  0.73309934863486  1.62126993009301
 1  4.62787331293129  4.77516793319332 -0.24049542134213
 1  5.57667075877588  3.20598813201320  0.55556134573457
 1  4.00596762936294  3.99620509260926  1.53720943784378
 1  1.70840161876188  5.14935411281128  0.40473154835484
 1 -7.63989555785579 -2.50537562106211  1.07074834443444
 1 -7.03978804270427 -4.31921830393039  1.60531637203720
 1 -6.98807450445045 -3.27651506760676 -0.21310922252225
 1 -6.81844636693669 -0.53453436193619  0.68723672477248
 1 -4.59998897099710  1.44733955485549 -0.67447470877088
 1 -6.43311168856886  0.77154622962296 -1.30725504160416
 1 -4.77522683468347  0.09039920212021 -1.52374913971397
 1 -3.70394237973797  6.14140854595460  0.88079495599560
 1 -4.31534297249725  4.37042937483748  0.95991201750175
 1  0.08054891039104  6.31904246964696  1.69420926252625
 1 -1.64308041834183  6.99257271197120  1.29306865856586
 1 -0.36145697769777  7.22142442814281  0.04192514961496
 1 -3.70252815981598  6.43489111481148 -1.55718992149215
 1 -5.34153686088609  6.02236535263526 -0.98323820102010
 1 -4.35524900180018  4.99433960426043 -1.91055056305630
 1  3.82488088858886 -4.44279049154915  1.66373715611561
 1  7.89595762036204 -1.66993638263826  2.18240562356236

