%nproc=4
%Mem=2GB
# td=(NStates=1) B3LYP/SVP 

TD

0 1
 8 -4.14022553335333 -4.65039941114112  2.04955898429843
 8  3.05669969866987 -5.02308361516152  0.97520165746575
 8  7.08595489978998 -1.51839910961096  1.79669234873487
 8  3.64722978047805 -3.03177120212021  0.08621528212821
 8  7.46419595619562 -0.55454534963496 -0.24570060276028
 8 -3.06788237433743  2.32527057785779 -0.48595015641564
 7 -0.24173116781678 -0.42559675277528 -0.72989000190019
 7  1.50298879157916  1.86610704320432 -0.41728330593059
 7 -3.25065705470547 -3.08354946794679  0.70516683528353
 7 -0.79160765646565  2.89318046744674 -0.17027087288729
 6  0.66672893719372 -2.46120407880788 -1.43693598869887
 6  0.98558146044604 -1.12385961766177 -1.04811366026603
 6 -0.68502263096310 -2.60163852605261 -1.12453451615161
 6 -1.28174859685969 -1.34293460486049 -0.72739186918692
 6  3.80861932273227  1.46256942344234 -0.19917418421842
 6  2.55453755955596  0.90420224572457 -0.47921210621062
 6  2.28299354955496 -0.42386964486449 -0.81749122372237
 6  3.55226586668667  2.81325112731273  0.15289327962796
 6  1.67361876697670 -3.39668136943694 -2.09166651225123
 6 -5.49521842854285 -2.72349796469647  1.38164542884288
 6 -3.57277113641364 -1.78204318021802  0.21448738053805
 6  2.09683399549955  2.96614660886089  0.09388701210121
 6 -4.94201689798980 -1.55200416431643  0.46728077197720
 6  5.05382064396440  0.74181909880988 -0.30309926862686
 6 -2.65414022972297 -0.97019557495750 -0.48340481428143
 6 -1.45982564466447 -3.86755650875088 -1.60263057985799
 6 -4.21152082048205 -3.62654688648865  1.45099022462246
 6  2.16886802050205 -4.51678070177018 -1.10814004080408
 6  5.39785858825883 -0.17034515801580  0.88268081528153
 6  4.39481554285429  3.86576942624262  0.69588178847885
 6  1.26863554195420  4.07377192749275  0.30086180678068
 6 -6.72285693629363 -3.33593837363736  0.92901196329633
 6 -5.85784536513651 -0.59791557555756 -0.02362519561956
 6 -0.12936085538554  4.04050230003000  0.20432224412441
 6 -1.09982508110811  5.14314184788479  0.50199866536654
 6 -2.38688816251625  4.63150465186519  0.25034094009401
 6  3.04384096609661 -4.11295396559656 -0.01591390219022
 6 -5.57468117761776  0.43507879647965 -1.09596106090609
 6  6.73580345934594 -0.77207267686769  0.73841473967397
 6 -3.74720226312631  5.30931198969897  0.37288179887989
 6 -2.14808436003600  3.17770273127313 -0.07404317411741
 6 -0.78066865796580  6.49423509350935  1.02174122572257
 6 -4.38797836043604  5.59577553425343 -1.03089218071807
 1 -0.42594417931793  0.60200706650665 -0.41348108780878
 1  3.19817717871787 -1.04095223642364 -0.94365445284528
 1  2.66400628192819 -2.79475107170717 -2.46852339943994
 1  1.24455546174617 -3.70078418931893 -2.93997235733573
 1 -5.87250897819782 -2.26972559725973  2.28476901680168
 1  5.34921743424342  0.22653203460346 -1.21424177147715
 1  6.00512908030803  1.57485701380138 -0.27742131673167
 1 -2.83087930563056  0.06507429772977 -0.76923732123212
 1  0.37808503910391  1.71170101400140 -0.74190163566357
 1 -1.18090282608261 -4.67420199069907 -0.88658816861686
 1 -2.52200231123112 -3.71964255065507 -1.80413854695470
 1 -1.02297747764776 -4.31224829362936 -2.39801539083908
 1 -2.35162754905491 -3.41081081178118  0.87836050125012
 1  1.22068289758976 -4.99114181248125 -0.48839422932293
 1  2.63832993739374 -5.34724883178318 -1.51838722062206
 1  4.66639187218722 -0.98237940134013  0.86385612171217
 1  5.13468781418142  0.32613865256526  1.89049685278528
 1  4.47315784138414  4.88288870527053 -0.10445181698170
 1  5.46652974467447  3.46346387958796  1.10446623622362
 1  3.98588562116212  4.35710118221822  1.65068078497850
 1  1.69956073467347  5.02418159555956  0.58963003820382
 1 -7.56720828912891 -2.70893597709771  0.90737200680068
 1 -6.71884594849485 -4.25378176027603  1.59578541894189
 1 -6.73579927692769 -3.57963537963796 -0.27413532513251
 1 -6.80579510181018 -0.60480138863886  0.35261326242624
 1 -4.81505047714772  1.34223904480448 -0.79086634793479
 1 -6.45972434983498  0.81655073007301 -1.54622893899390
 1 -5.13857316931693 -0.08507834563456 -1.93447021182118
 1 -3.59585157065707  6.29300370547055  0.92909978647865
 1 -4.31979341754175  4.54706703860386  0.87647367366737
 1 -0.34166331083108  6.27444801020102  1.99220906250625
 1 -1.70490660096010  7.06942039673967  1.11479083078308
 1  0.26311547954795  6.99162144784478  0.41593255035504
 1 -3.71047895489549  6.34572219791979 -1.46691089358936
 1 -5.31964467166717  5.85427854395440 -0.72565244244424
 1 -4.46758023492349  4.41074124442444 -1.37083659165917
 1  3.69328772927293 -4.80514672717272  1.59019980238024
 1  8.01587961256126 -1.77780716971697  1.84506188918892

