%nproc=4
%Mem=2GB
# td=(NStates=1) B3LYP/SVP 

TD

0 1
 8 -4.33923543434343 -4.97639201040104  1.98492252065207
 8  2.79517354605461 -4.92230353715372  0.89862399969997
 8  6.78294459875988 -1.70147741744174  1.82547522702270
 8  3.73317837533753 -3.15027305230523 -0.04375771517152
 8  7.59913945054505 -0.42009190429043  0.09569353665367
 8 -3.05159074517452  2.54142219301930 -0.35942750415042
 7 -0.23058005270527 -0.49871406450645 -0.67076408930893
 7  1.53423191589159  1.87943837633763 -0.36429800740074
 7 -3.21058304730473 -3.14975608860886  0.75566188478848
 7 -0.78291678737874  2.97359850925092 -0.08173201900190
 6  0.61738400270027 -2.44635259365937 -1.43985628072807
 6  0.96932983528353 -1.04422165386539 -0.99618846774677
 6 -0.75142927162716 -2.65629399159916 -1.20311237393739
 6 -1.31793221522152 -1.44733504490449 -0.71787091709171
 6  3.76334479527953  1.50919408590859 -0.16557082388239
 6  2.51688379417942  0.88265009050905 -0.50107429242924
 6  2.22900815101510 -0.43235049294930 -0.90659013361336
 6  3.54313495359536  2.85562536473647  0.09667765806581
 6  1.63563496859686 -3.25162686398640 -2.23443078867887
 6 -5.49696860356036 -2.89758537343734  1.34004126842684
 6 -3.43495735503550 -1.89260423632363  0.27424335613561
 6  2.10204451655166  3.06277627182718  0.14236185958596
 6 -4.92939563586359 -1.67699666356636  0.57551159505951
 6  5.17796305820582  0.92421733863386 -0.21553051175118
 6 -2.62724754045405 -1.08241679707971 -0.29773624742474
 6 -1.46935659775978 -3.80717047014701 -1.79223954075408
 6 -4.27472714111411 -3.82732696449645  1.43148827442744
 6  2.02533366706671 -4.42747177087709 -1.22039126592659
 6  5.37411621402140 -0.01932005550555  0.95613816101610
 6  4.53960002130213  3.92203505280528  0.43958615891589
 6  1.30840951935194  4.17604215451545  0.42160388098810
 6 -6.78165281588159 -3.65847062686269  0.95137419951995
 6 -5.75771535213521 -0.60106589058906  0.10056722362236
 6 -0.08231615091509  4.01361961176118  0.23912572447245
 6 -0.99318441704170  5.21197873157316  0.36532499799980
 6 -2.29699917361736  4.70671217261726  0.12279818581858
 6  2.94187076907691 -4.04827749794979 -0.07383969476948
 6 -5.40863457295730  0.52844813341334 -0.64703616841684
 6  6.67058693769377 -0.71900737033703  0.85255615381538
 6 -3.68157570047005  5.31571262976298  0.22671718241824
 6 -2.06391594319432  3.24405936693669 -0.17830360016002
 6 -0.57987857895790  6.50429609960996  0.74431348294829
 6 -4.34170373297330  5.58521447814781 -1.16948604010401
 1 -0.48071965686569  0.43320018581858 -0.29803954365436
 1  3.08628598959896 -1.17179532073207 -0.92294238163816
 1  2.71132101340134 -2.74428602520252 -2.46133268036804
 1  1.16754776097610 -3.79516362726273 -3.07617597769777
 1 -5.54437616491649 -2.34525315001500  2.40028056795680
 1  5.34730724322432  0.30954033543354 -1.10193054035404
 1  5.91135970337034  1.63043257135714 -0.38295186978698
 1 -2.85159137683768 -0.04637684738474 -0.54411480898090
 1  0.55689291989199  1.83878372227223 -0.67438488398840
 1 -1.31865660146015 -4.69108367886789 -1.11354086388639
 1 -2.50515062606261 -3.62615320172017 -2.05154328742874
 1 -1.11646682658266 -4.18197526632663 -2.66843243254325
 1 -2.30314270057006 -3.65709544024402  0.86153881908191
 1  1.06895772507251 -4.87468016631663 -0.71861725162516
 1  2.59586569096910 -5.21350545744574 -1.97611299319932
 1  4.64015924892489 -0.75836700010001  1.17368710481048
 1  5.40167451285129  0.63129916861686  1.86081388448845
 1  4.64722524812481  4.81778219461946 -0.26601797359736
 1  5.60343343504351  3.55497303050305  0.61813760336034
 1  4.20200723332333  4.26028150025003  1.44122983988399
 1  1.57318809740974  5.24760393779378  0.55062613781378
 1 -7.60176174447445 -2.99644472797280  1.23333460306031
 1 -6.96409047294729 -4.37819420152015  1.65477131753175
 1 -6.75199089608961 -3.85362277837784 -0.14528243984398
 1 -6.87781230353035 -0.76530743924392  0.09775777687769
 1 -4.93016198829883  1.29520434133413  0.06967970667067
 1 -6.26826520392039  0.86310538553855 -0.88175249134913
 1 -4.85142445444544  0.30627078927893 -1.58796556135614
 1 -3.67111909740974  6.37918232333233  0.72059893639364
 1 -4.31195263346335  4.52290462236224  0.81773780008001
 1  0.21833268876888  6.48144871027103  1.61802164376438
 1 -1.34100021032103  7.13658711341134  0.99094844654465
 1 -0.09802063406341  7.06235852155216 -0.04610365326533
 1 -4.08540644764476  6.42435006070607 -1.68396259875988
 1 -5.64215692289229  5.90182329842984 -1.11966184338434
 1 -4.42611608850885  4.70203037333733 -1.82341184918492
 1  3.63968236873687 -4.94826103860386  1.47526830923092
 1  7.73317134173417 -2.35881527052705  1.52022940594059

