%nproc=4
%Mem=2GB
# td=(NStates=1) B3LYP/SVP 

TD

0 1
 8 -4.24309582038204 -4.98364273547355  1.73999802820282
 8  3.06585061376138 -4.89798110491049  1.03329746704670
 8  7.19436574087409 -1.31787905760576  2.00544322382238
 8  3.69537459495950 -3.06574459945995 -0.03493683308331
 8  7.46806634323432 -0.65978587368737 -0.21560759345935
 8 -3.03483907000700  2.37416546734673 -0.25093665506551
 7 -0.17117411211121 -0.53076726982698 -0.60980799369937
 7  1.53442193489349  1.80837126962696 -0.44404598219822
 7 -3.35470745974597 -3.04811592459246  0.74377069566957
 7 -0.80866936263626  2.95771692109211  0.07761391559156
 6  0.59539180348035 -2.48096605500550 -1.34521681678168
 6  0.95935883818382 -1.08068530023002 -1.00465931483148
 6 -0.84087821652165 -2.60416877907791 -1.31735379807981
 6 -1.34911533353335 -1.43180349174918 -0.77177630763076
 6  3.77793625442544  1.50103326982698 -0.31447571437144
 6  2.43639574537454  0.83387521302130 -0.53024720972097
 6  2.27319256945695 -0.45403266116612 -0.90659013361336
 6  3.50935157525753  2.79856965916592  0.08311630193019
 6  1.61774317941794 -3.39108080938094 -1.98692603820382
 6 -5.49406831353135 -2.82020763566357  1.21578884318432
 6 -3.61609546884688 -1.81108608450845  0.24133006480648
 6  2.08868318041804  3.01231122532253 -0.05181755835584
 6 -4.97081977827783 -1.67860682458246  0.49114315821582
 6  5.14248951085109  0.75438035493549 -0.29022798149815
 6 -2.65128994469447 -0.93469202460246 -0.37503397719772
 6 -1.58034769686969 -3.81715146824682 -1.78639895669567
 6 -4.36765643404340 -3.81266549834983  1.31809693529353
 6  2.13720485418542 -4.46252527622762 -1.09335856265627
 6  5.44301310371037 -0.09506763026303  0.93121566876688
 6  4.44824088538854  3.94208705800580  0.54810701100110
 6  1.27643632203220  4.08942349264926  0.29778149874987
 6 -6.85219987058706 -3.40355513531353  0.91618068016802
 6 -5.74301388198820 -0.63010879487949  0.10633780068007
 6 -0.15823374267427  4.06391464126413  0.29447125902590
 6 -1.05034013261326  5.19843737743774  0.54897336283628
 6 -2.31636110981098  4.73252475387539  0.31024693069307
 6  3.05749233123312 -4.08276094629463 -0.01030334113411
 6 -5.39891360086009  0.58261354995500 -0.59074053885389
 6  6.76392627162716 -0.75955142474247  0.83132403060306
 6 -3.59900744364436  5.34583564206421  0.16723123382338
 6 -2.11786133773377  3.29056401740174 -0.05316108590859
 6 -0.72453304440444  6.62605827582758  0.84549360096010
 6 -4.26626618921892  5.36905286198620 -1.22107119861986
 1 -0.24288587348735  0.32010887668767 -0.04396413611361
 1  3.12013937493749 -1.09219736093609 -1.32114220162016
 1  2.52452233353335 -2.81352294889489 -2.39050559765976
 1  0.94999600580058 -4.07860197109711 -2.76983534363436
 1 -5.36268799609961 -2.52425104980498  2.37495803570357
 1  5.01499401190119  0.30962034343434 -1.27903825112511
 1  5.92733130053005  1.42153168126813 -0.50952452705271
 1 -2.79035525322532  0.18394618491849 -0.45001539903990
 1  0.54335156575658  1.68352819671967 -0.58346579207921
 1 -1.49160389618962 -5.04707927842784 -1.25951546134613
 1 -2.65971608260826 -3.49103969036904 -1.78237637073707
 1 -1.42892807270727 -4.14493156195620 -2.95144073337334
 1 -2.35338772507251 -3.25037476817682  0.49076174137414
 1  1.34901573087309 -5.08146084438444 -0.56675206510651
 1  2.61517762216222 -5.20130423732373 -1.69566494839484
 1  4.59608484148415 -0.87095825922592  0.91282101820182
 1  5.24193853925393  0.41634767346735  2.13704150725072
 1  4.38635916151615  4.86077649404941  0.05844447264727
 1  5.53215630733073  3.69537707090709  0.37185297489749
 1  4.58475550815082  3.90691616371637  1.63470918781878
 1  1.87623840244024  4.92823200060006  0.58821989718972
 1 -7.65615718401840 -2.69941502500250  1.13758502810281
 1 -7.13606767066707 -4.21736811891189  1.57302314271427
 1 -6.78923462046205 -3.84541195729573 -0.19381729332933
 1 -6.98421294359436 -0.62926383488349  0.32466046714671
 1 -5.12771174327433  1.61280610151015  0.13109584828483
 1 -6.13684206160616  1.11054012901290 -1.19069338543854
 1 -4.52395170717072  0.53694385658566 -1.42594935973597
 1 -3.67544953045305  6.36830123522352  0.64175105160516
 1 -4.40420185838584  4.60472280418042  0.80084611091109
 1 -0.15135427992799  6.85749631503150  1.84154399599960
 1 -1.66582269256926  7.06794024872487  0.65266461816182
 1 -0.04375520752075  6.95316760246025 -0.05086412931293
 1 -3.77614552155216  5.89586721242124 -1.99046324882488
 1 -5.48422112931293  5.48389150525053 -1.17566744394439
 1 -4.30280375727573  4.31134130443044 -1.64781428942894
 1  3.66692509300930 -4.61726793929393  1.64611539393939
 1  8.03828185278528 -1.65736512551255  1.94524190719072

