%nproc=4
%Mem=2GB
# td=(NStates=1) B3LYP/SVP 

TD

0 1
 8 -4.26811832263226 -5.02560693189319  1.63095712411241
 8  2.80994502320232 -4.85891719851985  1.24115825312531
 8  7.01511781608161 -1.44452172187219  1.87162984248425
 8  3.59292434993499 -3.11975000000000  0.13435009560956
 8  7.67724726132613 -0.53916381148115 -0.05242127482748
 8 -3.01858744484448  2.41729978077808 -0.39217077847785
 7 -0.21621861656166 -0.46421061416142 -0.40076708960896
 7  1.60433892659266  1.84989542204220 -0.49185076267627
 7 -3.32717470647065 -3.18249936293629  0.64161047964796
 7 -0.80531902760276  2.95949709910991 -0.08138198399840
 6  0.57595986028603 -2.44232219061906 -1.39544183928393
 6  0.96625952825283 -1.08567579927993 -0.91536038493849
 6 -0.72648677737774 -2.57773613581358 -1.18218028072807
 6 -1.29368979097910 -1.37378769016902 -0.65972510251025
 6  3.79877833863386  1.48112127862786 -0.36008027482748
 6  2.49710181598160  0.92718454395440 -0.64436862186219
 6  2.15927117731773 -0.42527978587859 -0.86414588918892
 6  3.56471711181118  2.81282108430843  0.00322831313131
 6  1.60862226732673 -3.26562826412641 -2.03998134373437
 6 -5.53952285898590 -2.83109872477248  1.26488375267527
 6 -3.58957281658166 -1.88874385028503  0.26217214901490
 6  2.15575988808881  3.05228522272227 -0.04125650225023
 6 -4.92349504580458 -1.52271123502350  0.53483752765277
 6  5.05722098399840  0.79694461136114 -0.48008696739674
 6 -2.59651446714671 -1.07717627302730 -0.29198567236724
 6 -1.45185484758476 -3.78645839893989 -1.83277359415942
 6 -4.32041170957096 -3.85574980678068  1.23542866846685
 6  2.13603473717372 -4.48103712741274 -1.08013724052405
 6  5.43765256765677 -0.08465658915892  0.77698024522452
 6  4.53520958225823  3.78207105640564  0.40208240854085
 6  1.30009868826883  4.12660721102110  0.25663738433843
 6 -6.84208885948595 -3.49484426422642  0.81255031713171
 6 -5.81478105870587 -0.51299708370837  0.11708887578758
 6 -0.17512543184318  4.08930718051805  0.26192800470047
 6 -1.08818391699170  5.21311884558456  0.53447191269127
 6 -2.28031750545054  4.74422592399240  0.26212211821182
 6  2.90741732373237 -4.06015868606861  0.15531322052205
 6 -5.34562827232723  0.58062335093509 -0.57750921572157
 6  6.84291417041704 -0.70820629022902  0.74227512571257
 6 -3.73490103300330  5.20356141464146  0.25649015971597
 6 -2.10108966056606  3.17953291429143 -0.09935570537054
 6 -0.68201879297930  6.51770744074407  1.02378142974297
 6 -4.35725528812881  5.45490144684468 -1.13403249474948
 1 -0.52473405830583  0.42627949374938  0.11763202350235
 1  2.92971033203320 -1.12454059525953 -0.88164825222522
 1  2.45155503680368 -2.71864346094609 -2.39522606970697
 1  1.34411541774177 -3.71529564046405 -2.91996035613561
 1 -5.60489221652165 -2.52825144984498  2.32510305020502
 1  5.04971748424843  0.18253763516352 -1.28652900020002
 1  5.83534210161016  1.50940046814681 -0.60685426002600
 1 -2.83265948364837 -0.12610482018202 -0.37636803430343
 1  0.52873010361036  1.99317916181618 -0.49520696619662
 1 -1.51297603340334 -4.61832640314031 -0.92714222402240
 1 -2.57104721572157 -3.45261584798480 -1.96006413951395
 1 -0.97250243014301 -4.27419448824882 -2.74881047034703
 1 -2.34030641694169 -3.59186891759176  0.92298496369637
 1  1.16078690799080 -4.90778347664766 -0.78247363726373
 1  2.83069917431743 -5.14331843874387 -1.75791117301730
 1  4.66228146114611 -0.98213937733773  0.65633536963696
 1  5.33500784618462  0.46347238593859  1.73599140224022
 1  4.18465899149915  5.07111752815282  0.19537816601660
 1  5.57106019771977  3.47783531673167 -0.17097130753075
 1  4.83216024862486  3.94721019311931  1.56482219911991
 1  1.79778055665567  5.01509068646865  0.37211828702870
 1 -7.75572714101410 -2.76646172967297  0.87767903750375
 1 -6.93362742664266 -4.23619000110011  1.63490933133313
 1 -6.80976667366737 -3.80858827492749 -0.12035994759476
 1 -6.70489501180118 -0.45417632613261  0.40076807790779
 1 -4.99637860996100  1.38269309020902  0.08748148684868
 1 -6.04588296569657  1.06290536553655 -1.27073138923892
 1 -4.39295860786079  0.32169233143314 -1.31017778257826
 1 -3.94507649314931  5.87280168526853  1.07074395089509
 1 -4.15906734493449  4.25222755465547  0.66726275257526
 1 -0.28436758125813  6.36586715211521  1.89957979957996
 1 -1.51731784208421  7.16984043874387  1.28289764146415
 1 -0.19516034803480  6.90524280998100  0.14082503960396
 1 -3.77362526952695  6.53804142984299 -1.44053825632563
 1 -5.54531723892389  5.35156827292729 -1.13187306450645
 1 -3.93980745764576  4.56751692199220 -1.90628013601360
 1  3.45457385788579 -4.57506371887189  1.70209099149915
 1  7.91626965156516 -1.62784217321732  1.99786716971697

