%nproc=11
%mem=11GB
# wB97XD/Def2TZVP iop(3/107=0200000000,3/108=0200000000)

TITLE

-1 2
 6 -5.14043300000000 -1.92845400000000 -0.26203600000000
 6 -3.54871400000000  1.58378900000000  2.52766000000000
 6 -6.83477700000000  4.52686100000000  0.52890700000000
 6 -8.69405600000000  0.92981200000000 -2.07291800000000
 7 -4.51733700000000 -0.00045900000000  0.98934600000000
 6 -4.34505100000000 -1.31613900000000  0.64916900000000
 6 -3.21357200000000 -1.96164000000000  1.42009200000000
 6 -2.85644700000000 -0.86862200000000  2.44337500000000
 6 -3.68318600000000  0.30714400000000  1.95708900000000
 6 -3.19420600000000 -1.24986400000000  3.88329600000000
 6 -2.03959200000000 -2.37441200000000  0.53024100000000
 6 -1.01022400000000 -3.18571900000000  1.29855800000000
 6  0.18820900000000 -3.56756400000000  0.46686100000000
 8  0.42489400000000 -3.14754200000000 -0.63386100000000
 8  0.96115300000000 -4.44117400000000  1.12084000000000
 7 -5.27263300000000  2.81615100000000  1.30390700000000
 6 -4.26170200000000  2.71363200000000  2.20502600000000
 6 -4.06333200000000  4.03472300000000  2.76501400000000
 6 -4.95015000000000  4.87795100000000  2.17228700000000
 6 -5.76281900000000  4.09743600000000  1.24927000000000
 6 -3.01768600000000  4.35577300000000  3.77610600000000
 6 -5.06379400000000  6.31568200000000  2.41613800000000
 6 -5.25380200000000  7.24724600000000  1.48894100000000
 7 -7.48715200000000  2.49237400000000 -0.64790100000000
 6 -7.65398100000000  3.77660300000000 -0.35382300000000
 6 -8.79910600000000  4.34870800000000 -1.04827800000000
 6 -9.33286400000000  3.34074400000000 -1.78185700000000
 6 -8.50041900000000  2.17602300000000 -1.52585100000000
 6 -9.24580600000000  5.76873500000000 -0.94445000000000
 6 -10.49713500000000  3.38773200000000 -2.71789300000000
 6 -10.07584200000000  3.62317500000000 -4.17017000000000
 7 -6.79127500000000 -0.13606400000000 -1.01142800000000
 6 -7.90067600000000 -0.20026000000000 -1.83679400000000
 6 -8.03431400000000 -1.52546000000000 -2.30160200000000
 6 -6.97454200000000 -2.22727600000000 -1.72205800000000
 6 -6.23574500000000 -1.34013600000000 -0.93384400000000
 6 -9.10360200000000 -2.06393700000000 -3.18682600000000
 6 -6.37453400000000 -3.54767900000000 -1.63057200000000
 8 -6.70692700000000 -4.59236500000000 -2.12682300000000
 6 -5.10229100000000 -3.37410700000000 -0.72380100000000
 6 -5.12413400000000 -4.38350700000000  0.40028900000000
 8 -5.87367000000000 -4.35315100000000  1.33687200000000
 8 -4.19177300000000 -5.32656500000000  0.22613400000000
 6 -4.16229000000000 -6.35435100000000  1.21228200000000
 6  2.20165900000000 -4.81645300000000  0.48687700000000
 6  3.29179300000000 -3.85652300000000  0.82886700000000
 6  3.96580600000000 -3.08164400000000 -0.01932200000000
 6  3.71533300000000 -3.03412500000000 -1.50067400000000
 6  5.07457300000000 -2.19575300000000  0.48157100000000
 6  6.44710700000000 -2.56062700000000 -0.08832200000000
 6  7.55554600000000 -1.67299400000000  0.46444900000000
 6  8.93609300000000 -1.88624600000000 -0.16264800000000
 6  9.45535400000000 -3.30181100000000  0.07795300000000
 6  9.91000100000000 -0.82441200000000  0.35600900000000
 6  11.27837200000000 -0.81123000000000 -0.31582800000000
 6  12.14867100000000  0.34708100000000  0.15848000000000
 6  13.49436500000000  0.49104700000000 -0.55788100000000
 6  14.39340400000000 -0.72189400000000 -0.32996400000000
 6  14.17577900000000  1.79248000000000 -0.12631800000000
 6  15.45652100000000  2.13849700000000 -0.87748500000000
 6  15.98472500000000  3.52286000000000 -0.51885800000000
 6  17.34799900000000  3.87381400000000 -1.11854400000000
 6  17.32706400000000  3.87071500000000 -2.64489800000000
 6  17.82884300000000  5.22343200000000 -0.59318500000000
 1 -2.79465700000000  1.69900300000000  3.29507400000000
 1 -7.10331500000000  5.56484800000000  0.66686500000000
 1 -9.53709400000000  0.79859000000000 -2.73968700000000
 1 -3.59054800000000 -2.84974900000000  1.93698500000000
 1 -1.79460500000000 -0.61128000000000  2.38593400000000
 1 -2.60363400000000 -2.11294700000000  4.19670200000000
 1 -2.98888300000000 -0.42968600000000  4.57286800000000
 1 -4.25069400000000 -1.51075500000000  3.97120500000000
 1 -2.39553600000000 -2.96978400000000 -0.31052900000000
 1 -1.57377800000000 -1.48553500000000  0.09931800000000
 1 -0.63282600000000 -2.63595700000000  2.16649100000000
 1 -1.45508500000000 -4.10143400000000  1.69615700000000
 1 -2.01912500000000  4.15339400000000  3.38204500000000
 1 -3.05327000000000  5.40489500000000  4.06425800000000
 1 -3.14281100000000  3.75007000000000  4.67647200000000
 1 -4.95063100000000  6.62891700000000  3.44964600000000
 1 -5.33052000000000  7.00176300000000  0.43695500000000
 1 -5.31441700000000  8.29355500000000  1.75880400000000
 1 -8.47266900000000  6.45593900000000 -1.29794600000000
 1 -10.13992700000000  5.94709500000000 -1.54127800000000
 1 -9.47545500000000  6.04197100000000  0.08836400000000
 1 -11.06560900000000  2.45668700000000 -2.64952100000000
 1 -11.18259300000000  4.17896200000000 -2.40702600000000
 1 -9.54714800000000  4.57288700000000 -4.26730500000000
 1 -9.40325200000000  2.83509700000000 -4.51322200000000
 1 -10.94371400000000  3.64478100000000 -4.83158700000000
 1 -9.55741800000000 -1.28275500000000 -3.79667600000000
 1 -8.70081000000000 -2.83220800000000 -3.84611000000000
 1 -9.89359300000000 -2.53019600000000 -2.59323400000000
 1 -4.24156200000000 -3.58045100000000 -1.36217900000000
 1 -3.35486100000000 -7.02071000000000  0.92115600000000
 1 -3.97315800000000 -5.93263700000000  2.20008200000000
 1 -5.11074100000000 -6.89021000000000  1.23254400000000
 1  2.41632500000000 -5.80309800000000  0.89741200000000
 1  2.04296200000000 -4.90786100000000 -0.58512100000000
 1  3.54483900000000 -3.81280400000000  1.88463600000000
 1  2.69694600000000 -3.31915800000000 -1.75607600000000
 1  3.88336500000000 -2.02233900000000 -1.87582400000000
 1  4.40863900000000 -3.69007700000000 -2.03387900000000
 1  4.84644800000000 -1.15805100000000  0.21110400000000
 1  5.11701400000000 -2.23725300000000  1.57296900000000
 1  6.64820800000000 -3.61068600000000  0.13951000000000
 1  6.42943800000000 -2.47575000000000 -1.17947500000000
 1  7.26689400000000 -0.62612700000000  0.32050900000000
 1  7.63137500000000 -1.82054100000000  1.54872400000000
 1  8.83404000000000 -1.74164200000000 -1.24599200000000
 1  8.77367000000000 -4.05412700000000 -0.32002100000000
 1  10.42350900000000 -3.46149800000000 -0.39736900000000
 1  9.57264200000000 -3.48820000000000  1.14986100000000
 1  9.44885700000000  0.16076700000000  0.22728200000000
 1  10.03927300000000 -0.95936700000000  1.43699000000000
 1  11.78984100000000 -1.75680500000000 -0.12522700000000
 1  11.14712200000000 -0.74327900000000 -1.40219100000000
 1  11.58751300000000  1.27923100000000  0.03191900000000
 1  12.32918100000000  0.24628700000000  1.23585300000000
 1  13.29088200000000  0.56486300000000 -1.63409700000000
 1  13.91845200000000 -1.64463200000000 -0.66463100000000
 1  15.33607100000000 -0.63078900000000 -0.87041300000000
 1  14.62546600000000 -0.83022500000000  0.73398500000000
 1  13.46435700000000  2.61535500000000 -0.25608400000000
 1  14.38817700000000  1.74288800000000  0.94872100000000
 1  16.23296300000000  1.39844600000000 -0.66119200000000
 1  15.26302600000000  2.07790900000000 -1.95299000000000
 1  15.25554400000000  4.28137400000000 -0.82952000000000
 1  16.05457000000000  3.59914300000000  0.57183600000000
 1  18.06178300000000  3.10938900000000 -0.78884600000000
 1  16.58486200000000  4.58223800000000 -3.01924000000000
 1  18.29923800000000  4.16117300000000 -3.04834500000000
 1  17.08220000000000  2.88756800000000 -3.04879600000000
 1  17.87732100000000  5.23064900000000  0.49776200000000
 1  18.82164400000000  5.46741200000000 -0.97672200000000
 1  17.14735200000000  6.02130900000000 -0.90223400000000
 1 -5.66706000000000  2.03413600000000  0.80721000000000
 1 -6.50998400000000  0.73123600000000 -0.57502900000000

