%nproc=11
%mem=11GB
# wB97XD/Def2TZVP iop(3/107=0100000000,3/108=0100000000) opt

TITLE

0 1
 6 -5.14045700000000 -1.92846100000000 -0.26170900000000
 6 -3.54827200000000  1.58428200000000  2.52707500000000
 6 -6.83476000000000  4.52693500000000  0.52838600000000
 6 -8.69455700000000  0.92935000000000 -2.07234500000000
 7 -4.51715200000000 -0.00025200000000  0.98923000000000
 6 -4.34489800000000 -1.31597600000000  0.64922700000000
 6 -3.21326700000000 -1.96133500000000  1.42004100000000
 6 -2.85593500000000 -0.86813100000000  2.44306000000000
 6 -3.68280900000000  0.30753600000000  1.95674900000000
 6 -3.19336300000000 -1.24911600000000  3.88312400000000
 6 -2.03945300000000 -2.37434100000000  0.53008500000000
 6 -1.01019200000000 -3.18581400000000  1.29835800000000
 6  0.18815500000000 -3.56785600000000  0.46663300000000
 8  0.42477300000000 -3.14804900000000 -0.63418300000000
 8  0.96109700000000 -4.44140900000000  1.12069700000000
 7 -5.27244200000000  2.81639300000000  1.30340900000000
 6 -4.26135000000000  2.71404700000000  2.20436000000000
 6 -4.06290400000000  4.03524200000000  2.76408500000000
 6 -4.94984500000000  4.87835300000000  2.17137000000000
 6 -5.76265500000000  4.09766500000000  1.24862400000000
 6 -3.01708400000000  4.35646900000000  3.77494200000000
 6 -5.06346200000000  6.31611700000000  2.41502400000000
 6 -5.25375000000000  7.24755600000000  1.48775900000000
 7 -7.48733200000000  2.49222200000000 -0.64793300000000
 6 -7.65412700000000  3.77649900000000 -0.35405100000000
 6 -8.79940200000000  4.34845800000000 -1.04837400000000
 6 -9.33328800000000  3.34035300000000 -1.78167000000000
 6 -8.50079600000000  2.17568200000000 -1.52559400000000
 6 -9.24609200000000  5.76849900000000 -0.94471300000000
 6 -10.49774500000000  3.38712700000000 -2.71748800000000
 6 -10.07672800000000  3.62197700000000 -4.16994100000000
 7 -6.79154300000000 -0.13627500000000 -1.01103300000000
 6 -7.90112700000000 -0.20066600000000 -1.83615100000000
 6 -8.03487500000000 -1.52597400000000 -2.30060800000000
 6 -6.97498000000000 -2.22765300000000 -1.72113500000000
 6 -6.23599700000000 -1.34032400000000 -0.93330400000000
 6 -9.10434200000000 -2.06462800000000 -3.18551200000000
 6 -6.37483400000000 -3.54799900000000 -1.62960100000000
 8 -6.70723700000000 -4.59277700000000 -2.12565900000000
 6 -5.10235800000000 -3.37420200000000 -0.72328000000000
 6 -5.12368100000000 -4.38325100000000  0.40114800000000
 8 -5.87403600000000 -4.35362900000000  1.33708400000000
 8 -4.18964200000000 -5.32492000000000  0.22826300000000
 6 -4.15912400000000 -6.35195000000000  1.21515500000000
 6  2.20152600000000 -4.81686600000000  0.48669500000000
 6  3.29176900000000 -3.85698600000000  0.82848700000000
 6  3.96574400000000 -3.08218800000000 -0.01980600000000
 6  3.71511500000000 -3.03466000000000 -1.50112200000000
 6  5.07459600000000 -2.19632100000000  0.48095300000000
 6  6.44704600000000 -2.56108000000000 -0.08920600000000
 6  7.55556300000000 -1.67359500000000  0.46364600000000
 6  8.93599800000000 -1.88658400000000 -0.16378200000000
 6  9.45518700000000 -3.30232500000000  0.07593600000000
 6  9.91006200000000 -0.82511800000000  0.35533600000000
 6  11.27818100000000 -0.81135900000000 -0.31699800000000
 6  12.14875300000000  0.34639300000000  0.15817500000000
 6  13.49401700000000  0.49123600000000 -0.55880900000000
 6  14.39305700000000 -0.72213800000000 -0.33321200000000
 6  14.17584000000000  1.79197100000000 -0.12579700000000
 6  15.45607900000000  2.13900600000000 -0.87735200000000
 6  15.98460000000000  3.52282400000000 -0.51709200000000
 6  17.34753500000000  3.87453100000000 -1.11710700000000
 6  17.32570300000000  3.87346700000000 -2.64345000000000
 6  17.82874000000000  5.22342500000000 -0.59022500000000
 1 -2.79408000000000  1.69966200000000  3.29433100000000
 1 -7.10330000000000  5.56493800000000  0.66621600000000
 1 -9.53774900000000  0.79798000000000 -2.73889600000000
 1 -3.59014800000000 -2.84933300000000  1.93720500000000
 1 -1.79410700000000 -0.61079400000000  2.38532800000000
 1 -2.60272900000000 -2.11214800000000  4.19655800000000
 1 -2.98787800000000 -0.42881900000000  4.57250700000000
 1 -4.24983500000000 -1.50997800000000  3.97133100000000
 1 -2.39557200000000 -2.96969400000000 -0.31061700000000
 1 -1.57352600000000 -1.48555900000000  0.09909000000000
 1 -0.63271000000000 -2.63616400000000  2.16632500000000
 1 -1.45522100000000 -4.10147800000000  1.69589600000000
 1 -2.01859600000000  4.15394300000000  3.38077300000000
 1 -3.05256100000000  5.40565700000000  4.06286100000000
 1 -3.14210300000000  3.75097700000000  4.67546500000000
 1 -4.95001600000000  6.62950000000000  3.44845600000000
 1 -5.33073800000000  7.00195000000000  0.43582200000000
 1 -5.31431900000000  8.29389600000000  1.75750900000000
 1 -8.47303000000000  6.45564500000000 -1.29848600000000
 1 -10.14033300000000  5.94674900000000 -1.54139300000000
 1 -9.47553800000000  6.04192200000000  0.08809800000000
 1 -11.06631600000000  2.45617500000000 -2.64864100000000
 1 -11.18304600000000  4.17855500000000 -2.40678000000000
 1 -9.54794300000000  4.57159000000000 -4.26754000000000
 1 -9.40430200000000  2.83369500000000 -4.51284200000000
 1 -10.94473300000000  3.64343800000000 -4.83118600000000
 1 -9.55718900000000 -1.28380000000000 -3.79655200000000
 1 -8.70198500000000 -2.83408800000000 -3.84366900000000
 1 -9.89501600000000 -2.52936600000000 -2.59164400000000
 1 -4.24176700000000 -3.58055100000000 -1.36183400000000
 1 -3.35056800000000 -7.01732800000000  0.92490700000000
 1 -3.97107700000000 -5.92924100000000  2.20274300000000
 1 -5.10678900000000 -6.88919500000000  1.23538700000000
 1  2.41614800000000 -5.80347100000000  0.89734900000000
 1  2.04274500000000 -4.90841500000000 -0.58527900000000
 1  3.54493900000000 -3.81323500000000  1.88422400000000
 1  2.69686300000000 -3.32018100000000 -1.75649500000000
 1  3.88259100000000 -2.02273800000000 -1.87616700000000
 1  4.40873700000000 -3.69017800000000 -2.03444900000000
 1  4.84638700000000 -1.15859700000000  0.21063600000000
 1  5.11723400000000 -2.23792300000000  1.57234000000000
 1  6.64817500000000 -3.61119500000000  0.13834300000000
 1  6.42924900000000 -2.47593500000000 -1.18033700000000
 1  7.26685200000000 -0.62668700000000  0.32011700000000
 1  7.63160300000000 -1.82150600000000  1.54785800000000
 1  8.83378600000000 -1.74135700000000 -1.24702800000000
 1  8.77351300000000 -4.05435800000000 -0.32259000000000
 1  10.42337900000000 -3.46174000000000 -0.39940100000000
 1  9.57237200000000 -3.48941900000000  1.14773300000000
 1  9.44884700000000  0.16014800000000  0.22754200000000
 1  10.03973500000000 -0.96090200000000  1.43616500000000
 1  11.78966000000000 -1.75716300000000 -0.12756300000000
 1  11.14652400000000 -0.74228600000000 -1.40324200000000
 1  11.58752000000000  1.27869600000000  0.03307000000000
 1  12.32990200000000  0.24430500000000  1.23531800000000
 1  13.28987100000000  0.56662900000000 -1.63479100000000
 1  13.91786300000000 -1.64430700000000 -0.66910600000000
 1  15.33547900000000 -0.63026500000000 -0.87395600000000
 1  14.62560700000000 -0.83216100000000  0.73045900000000
 1  13.46439200000000  2.61509400000000 -0.25384000000000
 1  14.38899300000000  1.74077400000000  0.94901800000000
 1  16.23263300000000  1.39860300000000 -0.66267200000000
 1  15.26183800000000  2.07998500000000 -1.95281000000000
 1  15.25528300000000  4.28182600000000 -0.82624100000000
 1  16.05510800000000  3.59756700000000  0.57366700000000
 1  18.06148000000000  3.10963700000000 -0.78884900000000
 1  16.58328800000000  4.58549500000000 -3.01640900000000
 1  18.29764100000000  4.16445300000000 -3.04708300000000
 1  17.08058700000000  2.89086200000000 -3.04851200000000
 1  17.87782700000000  5.22919100000000  0.50070400000000
 1  18.82133800000000  5.46786600000000 -0.97399100000000
 1  17.14711700000000  6.02174600000000 -0.89783200000000
 1 -5.66696000000000  2.03429700000000  0.80691300000000
 1 -6.51021800000000  0.73114300000000 -0.57487200000000

