%nproc=11
%mem=11GB
# wB97XD/Def2TZVP iop(3/107=0150000000,3/108=0150000000)

TITLE

1 2
 6 -5.23114300000000 -1.90143400000000 -0.32241900000000
 6 -3.46933400000000  1.29958900000000  2.73194700000000
 6 -6.34265500000000  4.64921900000000  0.70927600000000
 6 -8.36411500000000  1.37466700000000 -2.18683800000000
 7 -4.49652800000000 -0.10637900000000  1.06037000000000
 6 -4.42140000000000 -1.40411800000000  0.65853500000000
 6 -3.36783300000000 -2.18224800000000  1.42029900000000
 6 -3.01502900000000 -1.20411600000000  2.55795000000000
 6 -3.68710900000000  0.07657200000000  2.09228400000000
 6 -3.53516500000000 -1.65321100000000  3.92481400000000
 6 -2.16935600000000 -2.55299100000000  0.53834200000000
 6 -1.19327600000000 -3.47246700000000  1.25664700000000
 6  0.01941400000000 -3.82140300000000  0.42629600000000
 8  0.24851900000000 -3.39483000000000 -0.67472300000000
 8  0.80969900000000 -4.68109000000000  1.08263600000000
 7 -4.99262800000000  2.76194200000000  1.48532000000000
 6 -4.05088300000000  2.51875600000000  2.43446000000000
 6 -3.76206300000000  3.77948300000000  3.07231300000000
 6 -4.53183400000000  4.73820900000000  2.47296300000000
 6 -5.35296400000000  4.08582500000000  1.47008300000000
 6 -2.75263800000000  3.95318700000000  4.15610600000000
 6 -4.52190500000000  6.16592400000000  2.78750100000000
 6 -4.57048100000000  7.16034900000000  1.90528600000000
 7 -7.11134100000000  2.74384000000000 -0.60936100000000
 6 -7.16977800000000  4.03173500000000 -0.25321700000000
 6 -8.20747300000000  4.74540200000000 -0.98546900000000
 6 -8.78545300000000  3.82838100000000 -1.80554400000000
 6 -8.08632200000000  2.57653700000000 -1.55871100000000
 6 -8.52629500000000  6.19637300000000 -0.83519200000000
 6 -9.87651300000000  4.03368100000000 -2.80829600000000
 6 -9.34341000000000  4.29065800000000 -4.22198500000000
 7 -6.65656700000000  0.07757300000000 -1.05493400000000
 6 -7.70144600000000  0.16898000000000 -1.95896900000000
 6 -7.91997700000000 -1.11768600000000 -2.51808700000000
 6 -6.97857900000000 -1.94585700000000 -1.91320200000000
 6 -6.21835100000000 -1.17854800000000 -1.01465900000000
 6 -8.96458800000000 -1.48822900000000 -3.51427900000000
 6 -6.50223100000000 -3.32043500000000 -1.87396600000000
 8 -6.88257500000000 -4.29464100000000 -2.47052800000000
 6 -5.29753100000000 -3.32214600000000 -0.85292200000000
 6 -5.53902800000000 -4.37929600000000  0.20334600000000
 8 -6.26344700000000 -4.25264600000000  1.15388100000000
 8 -4.85113500000000 -5.49459600000000 -0.06759800000000
 6 -5.08257800000000 -6.59525500000000  0.81100500000000
 6  2.05825200000000 -5.03918000000000  0.44677500000000
 6  3.13745800000000 -4.06836300000000  0.79603400000000
 6  3.81402000000000 -3.28689200000000 -0.04729200000000
 6  3.57730900000000 -3.24243100000000 -1.53198400000000
 6  4.90827100000000 -2.38747800000000  0.46606200000000
 6  6.29565500000000 -2.73568100000000 -0.08465600000000
 6  7.38553900000000 -1.82588100000000  0.47493000000000
 6  8.78024300000000 -2.02705900000000 -0.13062600000000
 6  9.32244800000000 -3.42988300000000  0.14402100000000
 6  9.73003100000000 -0.93539100000000  0.37819900000000
 6  11.10524200000000 -0.90525100000000 -0.28400000000000
 6  11.95051600000000  0.27939500000000  0.17736300000000
 6  13.30263700000000  0.43605700000000 -0.52960600000000
 6  14.22736000000000 -0.75195100000000 -0.26315400000000
 6  13.95124300000000  1.76552300000000 -0.12478300000000
 6  15.22851000000000  2.12657000000000 -0.87918400000000
 6  15.72709400000000  3.53018900000000 -0.54464800000000
 6  17.08212900000000  3.90428900000000 -1.15538800000000
 6  17.05589300000000  3.88659900000000 -2.68361800000000
 6  17.53986800000000  5.26918200000000 -0.64264300000000
 1 -2.75767700000000  1.30270800000000  3.54726700000000
 1 -6.52077600000000  5.70027100000000  0.88944300000000
 1 -9.16641500000000  1.35701200000000 -2.91347800000000
 1 -3.80563300000000 -3.09889400000000  1.82583400000000
 1 -1.93467200000000 -1.04875100000000  2.62448600000000
 1 -3.05337100000000 -2.58448200000000  4.22902500000000
 1 -3.33787500000000 -0.90216900000000  4.69133400000000
 1 -4.61268200000000 -1.82421400000000  3.88633900000000
 1 -2.51255000000000 -3.04613200000000 -0.37150500000000
 1 -1.65896600000000 -1.64310000000000  0.21445900000000
 1 -0.83018500000000 -3.02717100000000  2.18729600000000
 1 -1.68147400000000 -4.40683400000000  1.54705400000000
 1 -1.75423400000000  3.67530500000000  3.81005700000000
 1 -2.70776200000000  4.98699900000000  4.49422300000000
 1 -2.98676900000000  3.32393400000000  5.01794400000000
 1 -4.43764900000000  6.41519300000000  3.84115900000000
 1 -4.60711000000000  6.97980700000000  0.83817900000000
 1 -4.54954600000000  8.19218300000000  2.23119900000000
 1 -7.67456700000000  6.82272100000000 -1.11352400000000
 1 -9.36502400000000  6.48522000000000 -1.46816200000000
 1 -8.78823000000000  6.44464700000000  0.19633000000000
 1 -10.53668600000000  3.16238800000000 -2.82158600000000
 1 -10.50103100000000  4.87496700000000 -2.49984100000000
 1 -8.72098200000000  5.18677200000000 -4.24120100000000
 1 -8.72975500000000  3.45593800000000 -4.56513400000000
 1 -10.16247400000000  4.42720300000000 -4.93054200000000
 1 -9.06453600000000 -0.72874200000000 -4.29127500000000
 1 -8.72052000000000 -2.43915700000000 -3.98427600000000
 1 -9.93867000000000 -1.59707300000000 -3.03046700000000
 1 -4.41128300000000 -3.60008700000000 -1.42620600000000
 1 -4.45666400000000 -7.40316200000000  0.44209600000000
 1 -4.80817800000000 -6.33551800000000  1.83368000000000
 1 -6.13231900000000 -6.88612300000000  0.78770300000000
 1  2.28236500000000 -6.02571400000000  0.85304000000000
 1  1.90153400000000 -5.12713100000000 -0.62573400000000
 1  3.38052200000000 -4.02147200000000  1.85402900000000
 1  2.56943900000000 -3.55286600000000 -1.79923400000000
 1  3.72325900000000 -2.22602200000000 -1.90418300000000
 1  4.29173300000000 -3.87989300000000 -2.06011800000000
 1  4.67139100000000 -1.35280400000000  0.19086400000000
 1  4.93631800000000 -2.42583300000000  1.55803800000000
 1  6.51002000000000 -3.78091900000000  0.15300000000000
 1  6.28998000000000 -2.65880700000000 -1.17641900000000
 1  7.08477200000000 -0.78487200000000  0.31431300000000
 1  7.44702000000000 -1.95925100000000  1.56187600000000
 1  8.68939300000000 -1.90586600000000 -1.21784400000000
 1  8.65906000000000 -4.20195200000000 -0.24733200000000
 1  10.29881600000000 -3.58115300000000 -0.31732400000000
 1  9.43082100000000 -3.59451100000000  1.22033700000000
 1  9.25011700000000  0.03778700000000  0.22838300000000
 1  9.85281600000000 -1.04827400000000  1.46238600000000
 1  11.63389800000000 -1.83742600000000 -0.07461400000000
 1  10.98099500000000 -0.85763900000000 -1.37219500000000
 1  11.37317100000000  1.19809600000000  0.02724000000000
 1  12.12141000000000  0.20302800000000  1.25823100000000
 1  13.10857100000000  0.47829600000000 -1.60926500000000
 1  13.77626400000000 -1.69310700000000 -0.57941800000000
 1  15.17278400000000 -0.65309200000000 -0.79761700000000
 1  14.45236100000000 -0.82982500000000  0.80489300000000
 1  13.22039600000000  2.56726100000000 -0.27690200000000
 1  14.15916900000000  1.74659800000000  0.95204600000000
 1  16.01974200000000  1.40716500000000 -0.64733700000000
 1  15.03992100000000  2.04214400000000 -1.95393100000000
 1  14.97928800000000  4.26666500000000 -0.86375900000000
 1  15.79910900000000  3.62532100000000  0.54441400000000
 1  17.81286400000000  3.15745700000000 -0.82223200000000
 1  16.30216800000000  4.58299400000000 -3.06317600000000
 1  18.02236900000000  4.18733700000000 -3.09337700000000
 1  16.82480500000000  2.89590200000000 -3.07728300000000
 1  17.59546300000000  5.28563400000000  0.44792500000000
 1  18.52547600000000  5.52960800000000 -1.03407000000000
 1  16.84152500000000  6.05190100000000 -0.95274000000000
 1 -5.42516300000000  2.04717800000000  0.92283500000000
 1 -6.33110600000000  0.89128700000000 -0.54976900000000

