%nproc=11
%mem=11GB
# wB97XD/Def2TZVP iop(3/107=0100000000,3/108=0100000000)

TITLE

1 2
 6 -5.32164400000000 -1.92098400000000 -0.25773200000000
 6 -3.45820200000000  1.30218600000000  2.72009100000000
 6 -6.30923800000000  4.67074400000000  0.67393400000000
 6 -8.40624400000000  1.38071100000000 -2.15674900000000
 7 -4.53440200000000 -0.11686800000000  1.08683600000000
 6 -4.48007200000000 -1.41525000000000  0.70283500000000
 6 -3.40529500000000 -2.19035000000000  1.44245200000000
 6 -3.05178700000000 -1.21568200000000  2.58644700000000
 6 -3.70291200000000  0.07402700000000  2.10815100000000
 6 -3.59971800000000 -1.65646200000000  3.94862500000000
 6 -2.21289100000000 -2.52346700000000  0.53025700000000
 6 -1.20384200000000 -3.44380500000000  1.20629800000000
 6 -0.00482800000000 -3.76192100000000  0.33836400000000
 8  0.18900000000000 -3.32047100000000 -0.76405300000000
 8  0.81641100000000 -4.61653100000000  0.96814600000000
 7 -4.97175700000000  2.77763700000000  1.46912900000000
 6 -4.02221100000000  2.53391000000000  2.41274700000000
 6 -3.70867300000000  3.79590000000000  3.02777900000000
 6 -4.47445100000000  4.76101800000000  2.41900400000000
 6 -5.31245100000000  4.10566100000000  1.43654000000000
 6 -2.68509800000000  3.97564400000000  4.10008600000000
 6 -4.44178300000000  6.19254000000000  2.71437200000000
 6 -4.48133100000000  7.18019600000000  1.82173100000000
 7 -7.12103000000000  2.75682200000000 -0.60972200000000
 6 -7.15429000000000  4.05607700000000 -0.26833200000000
 6 -8.18923000000000  4.77448100000000 -1.00407100000000
 6 -8.78619200000000  3.85327400000000 -1.80898500000000
 6 -8.10313500000000  2.59309800000000 -1.54689100000000
 6 -8.48997200000000  6.23248400000000 -0.87151100000000
 6 -9.88488800000000  4.06088300000000 -2.80597200000000
 6 -9.36720800000000  4.30639900000000 -4.23033000000000
 7 -6.72388000000000  0.06929200000000 -1.00284100000000
 6 -7.76392500000000  0.16971200000000 -1.91220700000000
 6 -7.99664300000000 -1.12396100000000 -2.46501300000000
 6 -7.06984900000000 -1.95858300000000 -1.85010800000000
 6 -6.30038800000000 -1.19414100000000 -0.95019100000000
 6 -9.03247800000000 -1.47992200000000 -3.47798800000000
 6 -6.60709300000000 -3.33930800000000 -1.80407000000000
 8 -6.98786300000000 -4.30963900000000 -2.40798100000000
 6 -5.41643800000000 -3.35214600000000 -0.75955000000000
 6 -5.71546600000000 -4.38039800000000  0.31614400000000
 8 -6.43126600000000 -4.19943300000000  1.26534200000000
 8 -5.09382300000000 -5.53873200000000  0.05516900000000
 6 -5.39182800000000 -6.62279500000000  0.93850100000000
 6  2.05498900000000 -4.95899200000000  0.29786000000000
 6  3.14401700000000 -4.00051500000000  0.65587200000000
 6  3.83679900000000 -3.21993900000000 -0.17750200000000
 6  3.61029400000000 -3.15838700000000 -1.66469700000000
 6  4.94001200000000 -2.33785200000000  0.35413700000000
 6  6.33546600000000 -2.70851000000000 -0.17027200000000
 6  7.43211500000000 -1.81702700000000  0.41315000000000
 6  8.83987100000000 -2.04481000000000 -0.16100400000000
 6  9.35707000000000 -3.45556200000000  0.13514600000000
 6  9.79644700000000 -0.95907200000000  0.35852400000000
 6  11.18467900000000 -0.94518400000000 -0.28358700000000
 6  12.04115500000000  0.22934800000000  0.19260200000000
 6  13.41130200000000  0.36707000000000 -0.49103800000000
 6  14.32014600000000 -0.83109100000000 -0.20138600000000
 6  14.06701900000000  1.69654200000000 -0.08408000000000
 6  15.35535900000000  2.04945500000000 -0.82945600000000
 6  15.86858000000000  3.44866800000000 -0.48516900000000
 6  17.22915200000000  3.81779400000000 -1.09538100000000
 6  17.20128800000000  3.82893700000000 -2.62637700000000
 6  17.71019500000000  5.16737800000000 -0.55528300000000
 1 -2.73835900000000  1.30616300000000  3.52738100000000
 1 -6.46966600000000  5.72592200000000  0.84260300000000
 1 -9.20971500000000  1.36543100000000 -2.88047500000000
 1 -3.81781700000000 -3.12030100000000  1.84033200000000
 1 -1.97127300000000 -1.07755400000000  2.66970600000000
 1 -3.13500600000000 -2.59270700000000  4.26246800000000
 1 -3.40235600000000 -0.90635300000000  4.71538300000000
 1 -4.67828400000000 -1.81236400000000  3.89678200000000
 1 -2.56687100000000 -2.99989100000000 -0.38364200000000
 1 -1.72502900000000 -1.59835700000000  0.21734300000000
 1 -0.82375000000000 -3.01148700000000  2.13537600000000
 1 -1.67048000000000 -4.39021600000000  1.49093500000000
 1 -1.69438800000000  3.67364100000000  3.75301400000000
 1 -2.61877700000000  5.01528700000000  4.41432500000000
 1 -2.92175900000000  3.37174500000000  4.97888100000000
 1 -4.34759200000000  6.45360700000000  3.76401000000000
 1 -4.52452400000000  6.99178000000000  0.75678500000000
 1 -4.44573700000000  8.21455900000000  2.13737700000000
 1 -7.63843800000000  6.84550000000000 -1.17755200000000
 1 -9.33822800000000  6.52026000000000 -1.49115900000000
 1 -8.72827100000000  6.50049800000000  0.16041400000000
 1 -10.55192400000000  3.19524900000000 -2.80764300000000
 1 -10.50087400000000  4.90787500000000 -2.49729400000000
 1 -8.74140600000000  5.19901300000000 -4.26485800000000
 1 -8.76343700000000  3.46696100000000 -4.57752200000000
 1 -10.19549700000000  4.44257000000000 -4.92786800000000
 1 -8.94043500000000 -0.86065400000000 -4.37243400000000
 1 -8.93544800000000 -2.52275200000000 -3.77013000000000
 1 -10.03797900000000 -1.33062200000000 -3.07807000000000
 1 -4.52878100000000 -3.67085900000000 -1.30756300000000
 1 -4.81478800000000 -7.46683800000000  0.57163900000000
 1 -5.10229400000000 -6.37864400000000  1.96020700000000
 1 -6.45621800000000 -6.85204300000000  0.91416700000000
 1  2.28350500000000 -5.95696200000000  0.67251500000000
 1  1.87773600000000 -5.01755900000000 -0.77266000000000
 1  3.38328000000000 -3.96637900000000  1.71479800000000
 1  2.61173200000000 -3.48321400000000 -1.94683500000000
 1  3.74077100000000 -2.13505400000000 -2.02231800000000
 1  4.33865500000000 -3.77623400000000 -2.19647200000000
 1  4.72523900000000 -1.29966300000000  0.07604100000000
 1  4.94732500000000 -2.37600400000000  1.44582000000000
 1  6.52728800000000 -3.75694300000000  0.06932700000000
 1  6.35265900000000 -2.62991000000000 -1.26097100000000
 1  7.15487300000000 -0.77164000000000  0.24338900000000
 1  7.46552500000000 -1.94800600000000  1.50083100000000
 1  8.77374900000000 -1.93181200000000 -1.25020500000000
 1  8.69152100000000 -4.22052000000000 -0.26527900000000
 1  10.33978300000000 -3.62368900000000 -0.30546700000000
 1  9.44170400000000 -3.61636500000000  1.21348800000000
 1  9.32950700000000  0.01778300000000  0.19677400000000
 1  9.90119200000000 -1.06715700000000  1.44430900000000
 1  11.69734800000000 -1.88417000000000 -0.06831300000000
 1  11.07750200000000 -0.89439600000000 -1.37270400000000
 1  11.48034100000000  1.15546800000000  0.03054100000000
 1  12.19007700000000  0.15277300000000  1.27591300000000
 1  13.23720500000000  0.40369600000000 -1.57361500000000
 1  13.86483800000000 -1.76855000000000 -0.52124600000000
 1  15.27502900000000 -0.74544800000000 -0.72025700000000
 1  14.52685000000000 -0.90755300000000  0.86976400000000
 1  13.34275000000000  2.50150200000000 -0.24561100000000
 1  14.26470600000000  1.68092500000000  0.99396300000000
 1  16.13673600000000  1.32088800000000 -0.59621400000000
 1  15.17309000000000  1.97214200000000 -1.90507700000000
 1  15.12674900000000  4.19372300000000 -0.79555000000000
 1  15.94375800000000  3.53406000000000  0.60383100000000
 1  17.95063800000000  3.05552700000000 -0.77902300000000
 1  16.46260400000000  4.54621100000000 -2.99455700000000
 1  18.17333600000000  4.11651600000000 -3.03142300000000
 1  16.95088200000000  2.85049100000000 -3.03734200000000
 1  17.77303800000000  5.15912800000000  0.53459800000000
 1  18.69736400000000  5.42117400000000 -0.94615500000000
 1  17.02344900000000  5.96787200000000 -0.84302000000000
 1 -5.41440000000000  2.06219700000000  0.91633600000000
 1 -6.39228600000000  0.88288500000000 -0.50192300000000

