%nproc=4
%Mem=2GB
# td(NStates=1) B3LYP/6-31G(d,p) nosymm

AlQ3Abs Single Point

0 1
Al  -0.61942711  -1.16369409   0.28466907
O   0.65887012  -2.28631729   0.18106022
O  -2.08700688  -2.09198617  -0.34204743
O  -1.05287878  -1.32162188   2.08514782
C  -0.34014013  -0.57953295   2.94814984
C  -0.45501474  -0.74672331   4.32010090
C   0.45023103   0.00951696   5.19494643
C   1.46074999   0.71665491   4.69257912
C   1.62741809   0.93537321   3.27262375
C   0.73959811   0.19183808   2.50836831
C   2.68345587   1.70171249   2.63182397
C   2.70162031   1.78761205   1.29941284
C   1.75403407   1.07655969   0.55707299
N   0.82312254   0.35847687   1.14742511
C   1.29037596  -2.36356185  -1.00400770
C   2.28372011  -3.34183968  -1.30551593
C   2.99470362  -3.33793902  -2.53353936
C   2.69129990  -2.42562991  -3.50565555
C   1.75855962  -1.49185929  -3.25998788
C   0.91972387  -1.42396594  -1.98864875
C   1.27972990  -0.49935743  -4.14294184
C   0.31948184   0.41857123  -3.85541033
C  -0.40509004   0.33491201  -2.50693432
N  -0.00663003  -0.53266477  -1.65295330
C  -3.19803391  -1.56888396  -0.57632391
C  -4.38288967  -2.21421467  -0.77088076
C  -5.61355025  -1.34171175  -1.06445985
C  -5.62599782   0.00456032  -0.76947653
C  -3.27972236  -0.05716834  -0.20205592
C  -4.44213275   0.64288910  -0.37739915
C  -4.39085082   1.99429316   0.01425599
C  -3.19876828   2.55370364   0.51024454
C  -2.05643180   1.69193307   0.59274056
N  -2.15165437   0.45182142   0.16933999
H  -4.60570823  -3.37948104  -0.73879756
H  -6.34129226  -2.02483583  -1.28793273
H  -6.44539904   0.57983158  -0.67883490
H  -5.23471943   2.73266975  -0.24252087
H  -3.11078963   3.70654662   0.53604926
H  -1.11754632   1.96111234   0.94790615
H  -1.06744799  -1.70892830   4.64941676
H   0.16825467  -0.15823115   6.43383810
H   2.26325197   1.14865774   5.45009069
H   3.52332225   2.07047482   3.32844030
H   3.63765945   2.24739021   0.92585036
H   1.53612368   1.18630190  -0.54773930
H   2.45950582  -4.03355594  -0.59827215
H   3.69019160  -4.15604652  -2.59289228
H   3.17364227  -2.21617757  -4.42492172
H  -1.24095581   1.02467867  -2.19933661
H   1.57307761  -0.55862567  -5.16465854
H  -0.14943464   1.15708500  -4.45860979




