%nproc=6
%mem=6GB
# wB97XD/Def2TZVP iop(3/107=0100001000,3/108=0100001000)

TITLE

-1 2
 8 -11.62751000000000  0.89084300000000  0.86573600000000
 8 -13.49271900000000 -2.41602300000000 -1.16497600000000
 8  10.63593000000000 -0.47845800000000 -2.33542300000000
 8  14.50257200000000 -1.16547100000000 -0.35340600000000
 6 -10.92171400000000 -0.25714500000000  0.38537100000000
 6 -11.85992000000000  0.49014500000000 -0.49307600000000
 6 -11.34869900000000 -1.58035400000000  1.05191000000000
 6 -13.27430800000000 -0.00367800000000 -0.75503800000000
 6 -12.89010800000000 -1.67303600000000  1.10841700000000
 6 -13.63521100000000 -1.38466800000000 -0.19181100000000
 6 -11.35893000000000  1.46717300000000 -1.53062500000000
 6 -9.44671900000000 -0.03593000000000  0.27974700000000
 6 -10.72335300000000 -2.77166000000000  0.29982800000000
 6 -10.82962400000000 -1.60159900000000  2.50101000000000
 6 -8.69150100000000 -0.36450800000000 -0.76961900000000
 6 -7.24481900000000 -0.15389700000000 -0.90284500000000
 6 -6.52783100000000 -1.19979600000000 -1.71433700000000
 6 -6.64680700000000  0.92008400000000 -0.34123800000000
 6 -5.24430500000000  1.24424000000000 -0.34662300000000
 6  11.88290400000000 -0.38841100000000  1.30075200000000
 6  11.67357600000000 -0.32699700000000 -1.36972900000000
 6  12.59776700000000 -1.74470800000000  1.11458400000000
 6  13.32378900000000 -1.95695000000000 -0.21431800000000
 6  12.40109300000000 -1.67855100000000 -1.39135400000000
 6  11.07286100000000 -0.06787300000000  0.03271200000000
 6  10.94979800000000 -0.50970000000000  2.51471900000000
 6  12.88884500000000  0.74183000000000  1.60230700000000
 6  12.57228800000000  0.83508900000000 -1.81348700000000
 6 -4.74393300000000  2.36117900000000  0.22081400000000
 6  9.87305400000000  0.43413000000000  0.09843400000000
 6 -3.34430700000000  2.76365300000000  0.28737400000000
 6  8.65486300000000  0.92853000000000  0.10284600000000
 6 -3.12074200000000  4.24542900000000  0.44611000000000
 6 -2.34011700000000  1.85360600000000  0.22656700000000
 6  7.42238600000000  0.13993700000000  0.09101500000000
 6  7.57247200000000 -1.35288700000000  0.04147800000000
 6  6.23821600000000  0.79564300000000  0.12040100000000
 6 -0.92857900000000  2.10589900000000  0.23078900000000
 6  4.91816100000000  0.22464100000000  0.11441700000000
 6  0.00660000000000  1.12658900000000  0.18992000000000
 6  3.79176900000000  0.97040400000000  0.14965600000000
 6  1.41713200000000  1.37975500000000  0.18586900000000
 6  2.43191600000000  0.47502200000000  0.14610200000000
 6  2.21642100000000 -1.01285400000000  0.09825500000000
 1 -13.46562700000000 -0.01829300000000 -1.82899400000000
 1 -13.94397800000000  0.74932900000000 -0.33020100000000
 1 -13.17017600000000 -2.66708200000000  1.46329800000000
 1 -13.24505900000000 -0.95597700000000  1.85163900000000
 1 -14.70401000000000 -1.39188700000000  0.02592200000000
 1 -11.20736200000000  0.96597300000000 -2.48861700000000
 1 -12.10247400000000  2.25328600000000 -1.67913000000000
 1 -10.42250300000000  1.92766000000000 -1.22777600000000
 1 -8.99023500000000  0.41408800000000  1.15531500000000
 1 -9.65886700000000 -2.85117500000000  0.51816500000000
 1 -11.20301500000000 -3.70504600000000  0.59504900000000
 1 -10.80106500000000 -2.67925600000000 -0.78611200000000
 1 -11.20038100000000 -0.74136900000000  3.05914500000000
 1 -11.16902200000000 -2.50744200000000  3.00740400000000
 1 -9.73921400000000 -1.59126700000000  2.53498600000000
 1 -12.56432000000000 -2.51516000000000 -1.37793100000000
 1 -9.16970000000000 -0.86149700000000 -1.61056300000000
 1 -5.48083600000000 -0.96495500000000 -1.88731000000000
 1 -6.58014200000000 -2.17419100000000 -1.22101900000000
 1 -7.00842300000000 -1.31375900000000 -2.68971000000000
 1 -7.28755000000000  1.63451300000000  0.16692900000000
 1 -4.56244600000000  0.56109600000000 -0.83913900000000
 1  13.29628600000000 -1.89556100000000  1.94470900000000
 1  11.85162400000000 -2.54062900000000  1.19754700000000
 1  13.60883900000000 -3.01552800000000 -0.26924300000000
 1  12.95774400000000 -1.76981700000000 -2.32502100000000
 1  11.62969900000000 -2.45088300000000 -1.39882700000000
 1  11.52608000000000 -0.78221700000000  3.40139500000000
 1  10.44294400000000  0.43364900000000  2.71953300000000
 1  10.18795400000000 -1.27319900000000  2.35493100000000
 1  13.63712500000000  0.85201700000000  0.82359200000000
 1  12.36378300000000  1.69093900000000  1.71785700000000
 1  13.41061600000000  0.52827600000000  2.53863300000000
 1  12.88424000000000  0.66150500000000 -2.84382100000000
 1  12.01592000000000  1.77343600000000 -1.76907900000000
 1  13.46423400000000  0.92436500000000 -1.20056200000000
 1 -5.45313000000000  3.06389900000000  0.65218100000000
 1  10.05031700000000  0.28096600000000 -2.26745900000000
 1  15.07806000000000 -1.34890400000000  0.39041800000000
 1  8.54107500000000  2.01022500000000  0.12359500000000
 1 -2.07950500000000  4.50610300000000  0.61620200000000
 1 -3.46468900000000  4.78417900000000 -0.44076900000000
 1 -3.70060700000000  4.62385000000000  1.29173100000000
 1 -2.62012600000000  0.80551900000000  0.18294100000000
 1  6.62311100000000 -1.86749400000000 -0.08055500000000
 1  8.22936500000000 -1.63839500000000 -0.78243000000000
 1  8.04047700000000 -1.71747900000000  0.95906300000000
 1  6.27557700000000  1.88138600000000  0.15452700000000
 1 -0.58506600000000  3.13429700000000  0.25985100000000
 1  4.83194800000000 -0.85426800000000  0.08236000000000
 1 -0.33713900000000  0.09840500000000  0.15621900000000
 1  3.89917400000000  2.05130500000000  0.18407700000000
 1  1.69921500000000  2.42881300000000  0.21896000000000
 1  1.16429800000000 -1.28340400000000  0.10164600000000
 1  2.66714100000000 -1.43872600000000 -0.80135200000000
 1  2.68734200000000 -1.49802200000000  0.95651300000000

