%nproc=6
%mem=6GB
# wB97XD/Def2TZVP iop(3/107=0100001000,3/108=0100001000) opt

TITLE

0 1
 8 -11.55967300000000  0.75218000000000  0.97781500000000
 8 -13.31451300000000 -2.48000300000000 -1.20821800000000
 8  10.51960300000000 -0.56400200000000 -2.31687300000000
 8  14.32109600000000 -1.42587500000000 -0.32314600000000
 6 -10.83280400000000 -0.33997400000000  0.42190500000000
 6 -11.80756600000000  0.42240100000000 -0.39206700000000
 6 -11.20152900000000 -1.70521100000000  1.02010800000000
 6 -13.20757000000000 -0.09971100000000 -0.65325500000000
 6 -12.73259400000000 -1.85431300000000  1.09486500000000
 6 -13.50154800000000 -1.52244400000000 -0.17585400000000
 6 -11.35863300000000  1.46803300000000 -1.37953400000000
 6 -9.37024900000000 -0.07357400000000  0.29317900000000
 6 -10.54873000000000 -2.82841600000000  0.19824400000000
 6 -10.65999300000000 -1.78006200000000  2.45329800000000
 6 -8.65101800000000 -0.30052000000000 -0.80066800000000
 6 -7.21151400000000 -0.05034900000000 -0.95565600000000
 6 -6.49323400000000 -1.04801500000000 -1.81901300000000
 6 -6.63274500000000  1.00844400000000 -0.36510300000000
 6 -5.23223300000000  1.36478700000000 -0.38849800000000
 6  11.79545900000000 -0.39056000000000  1.29077200000000
 6  11.57161200000000 -0.44483700000000 -1.36918600000000
 6  12.39991800000000 -1.80123600000000  1.17184700000000
 6  13.09781700000000 -2.12879600000000 -0.14374500000000
 6  12.19167800000000 -1.84334000000000 -1.32700900000000
 6  11.00578600000000 -0.07632700000000  0.01563000000000
 6  10.86679300000000 -0.37828800000000  2.50791000000000
 6  12.88454700000000  0.66830400000000  1.53060200000000
 6  12.55021400000000  0.61703000000000 -1.87348300000000
 6 -4.74509100000000  2.45542600000000  0.21968700000000
 6  9.84276900000000  0.50273100000000  0.06208400000000
 6 -3.34311400000000  2.87074100000000  0.26238100000000
 6  8.64423500000000  1.03176700000000  0.05108400000000
 6 -3.13154800000000  4.35568900000000  0.36062900000000
 6 -2.34651100000000  1.96515500000000  0.23122500000000
 6  7.40039000000000  0.25626100000000  0.08011700000000
 6  7.54277400000000 -1.23557400000000  0.07936900000000
 6  6.22943700000000  0.91902500000000  0.09662600000000
 6 -0.92881900000000  2.22353500000000  0.21716300000000
 6  4.90190300000000  0.35220200000000  0.12194500000000
 6 -0.00079100000000  1.25012300000000  0.20552700000000
 6  3.78826700000000  1.10224000000000  0.14093100000000
 6  1.41573500000000  1.50820900000000  0.18205300000000
 6  2.42202900000000  0.60823900000000  0.16581500000000
 6  2.21271900000000 -0.87792400000000  0.17093700000000
 1 -13.42487900000000 -0.05210200000000 -1.72188400000000
 1 -13.89001100000000  0.60020600000000 -0.16223100000000
 1 -12.97195000000000 -2.87625200000000  1.39771300000000
 1 -13.09962800000000 -1.18998700000000  1.88082200000000
 1 -14.56747000000000 -1.59328600000000  0.04622500000000
 1 -11.19633300000000  1.02144600000000 -2.36305400000000
 1 -12.13653600000000  2.22835600000000 -1.48111000000000
 1 -10.43826500000000  1.95017600000000 -1.06027700000000
 1 -8.89125400000000  0.31342300000000  1.18761300000000
 1 -9.48293100000000 -2.89645600000000  0.41646900000000
 1 -11.00928400000000 -3.78927800000000  0.43030300000000
 1 -10.62259000000000 -2.66717000000000 -0.88031100000000
 1 -11.05072600000000 -0.95943600000000  3.05690100000000
 1 -10.96256800000000 -2.72082600000000  2.91867800000000
 1 -9.56964700000000 -1.73512100000000  2.47157100000000
 1 -12.38707500000000 -2.50780200000000 -1.44515100000000
 1 -9.14887700000000 -0.73432400000000 -1.66618400000000
 1 -5.44985500000000 -0.79548100000000 -1.99096100000000
 1 -6.53360000000000 -2.04355600000000 -1.36861500000000
 1 -6.98416300000000 -1.12171100000000 -2.79328900000000
 1 -7.27723400000000  1.68563500000000  0.18865300000000
 1 -4.54629000000000  0.72389900000000 -0.93118700000000
 1  13.09075700000000 -1.96325700000000  2.00697500000000
 1  11.59456500000000 -2.53241600000000  1.29497800000000
 1  13.31018600000000 -3.20571500000000 -0.14836300000000
 1  12.73358800000000 -2.02118200000000 -2.25747100000000
 1  11.36260800000000 -2.55359800000000 -1.29261500000000
 1  11.42694600000000 -0.65398600000000  3.40432000000000
 1  10.43820700000000  0.61190800000000  2.66786100000000
 1  10.04453500000000 -1.08529500000000  2.38651900000000
 1  13.63540000000000  0.67938500000000  0.74619100000000
 1  12.43367200000000  1.65986400000000  1.59782400000000
 1  13.39202200000000  0.46221500000000  2.47692800000000
 1  12.83501400000000  0.36860400000000 -2.89670200000000
 1  12.06762500000000  1.59697200000000 -1.87042300000000
 1  13.45353400000000  0.66466300000000 -1.27215400000000
 1 -5.45128400000000  3.12532900000000  0.70651200000000
 1  9.99584900000000  0.24187000000000 -2.29205700000000
 1  14.88969200000000 -1.60894600000000  0.42631800000000
 1  8.54991900000000  2.11465500000000  0.02422600000000
 1 -2.08921500000000  4.63306400000000  0.49675200000000
 1 -3.50346600000000  4.85599400000000 -0.53736200000000
 1 -3.69743600000000  4.75789400000000  1.20510900000000
 1 -2.62430700000000  0.91487900000000  0.22913400000000
 1  6.58783500000000 -1.75011100000000  0.00950100000000
 1  8.17170700000000 -1.55111500000000 -0.75635900000000
 1  8.04344100000000 -1.56763300000000  0.99255200000000
 1  6.27155500000000  2.00561700000000  0.09204700000000
 1 -0.58844400000000  3.25393500000000  0.20660800000000
 1  4.81074100000000 -0.72727000000000  0.12733500000000
 1 -0.34207500000000  0.22008900000000  0.21148000000000
 1  3.89864800000000  2.18396100000000  0.13710200000000
 1  1.69359200000000  2.55944500000000  0.17632700000000
 1  1.16166200000000 -1.15286100000000  0.19214400000000
 1  2.65996000000000 -1.33112600000000 -0.71720900000000
 1  2.69453200000000 -1.32980400000000  1.04147400000000

