%NProcShared=4
%Chk=chlorophyll-a-s1-geom-freq-wTunado.chk
#n iop(3/107=0140000000,3/108=0140000000) CAM-B3LYP/6-31G(d,p) Opt Freq=savenormalmodes

 chlorophyll-a-s1-geom-freq-wTunado

0 1
Mg         7.07803        0.69353       -0.11292
C          4.97250       -2.04806       -0.51597
C          4.60819        2.72027       -1.32076
C          9.14516        3.35724        0.36449
C          9.59766       -1.45773        0.98054
N          5.07152        0.35951       -0.79317
C          4.38441       -0.83294       -0.84487
C          2.94685       -0.62278       -1.28363
C          2.98387        0.81960       -1.84737
C          4.28913        1.36293       -1.28304
C          2.96216        0.86246       -3.38611
C          1.95609       -0.80782       -0.11283
C          0.49280       -0.76054       -0.54869
C         -0.47512       -1.00534        0.59334
O         -0.16962       -1.39236        1.69560
O         -1.73984       -0.74694        0.21948
N          6.89961        2.70209       -0.40770
C          5.80091        3.36267       -0.90582
C          6.04972        4.78434       -0.95323
C          7.34582        4.97361       -0.47155
C          7.85559        3.64153       -0.13567
C          5.07305        5.82613       -1.40089
C          8.10345        6.19902       -0.28483
C          7.87062        7.41987       -0.81065
N          9.02440        0.90871        0.56535
C          9.68688        2.10414        0.68417
C         11.04184        1.87464        1.18670
C         11.17122        0.51620        1.35837
C          9.89076       -0.07642        0.96382
C         12.05004        2.95100        1.44275
C         12.35409       -0.24660        1.88416
C         12.26886       -0.57275        3.38565
N          7.28975       -1.29695        0.18020
C          8.37566       -2.04743        0.61350
C          8.03680       -3.46830        0.62261
C          6.71519       -3.51859        0.18204
C          6.31037       -2.17418       -0.07069
C          8.92918       -4.59697        1.02180
C          5.60233       -4.41371       -0.11297
O          5.52832       -5.62198       -0.06690
C          4.38910       -3.45583       -0.53480
C          3.80950       -3.90777       -1.86230
O          4.03211       -3.40425       -2.93882
O          3.01529       -4.97567       -1.69367
C          2.50743       -5.58572       -2.87920
C         -2.76824       -0.98937        1.20596
C         -4.08997       -0.67521        0.58328
C         -5.06956        0.10182        1.08176
C         -4.98641        0.83891        2.39601
C         -6.36783        0.26642        0.31822
C         -7.59712       -0.36381        0.99920
C         -8.87764       -0.20538        0.17222
C        -10.16921       -0.73136        0.82968
C        -10.12045       -2.24820        1.06242
C        -11.39571       -0.31101       -0.00486
C        -12.76305       -0.57836        0.63513
C        -13.93067       -0.05086       -0.20698
C        -15.33303       -0.21024        0.41376
C        -15.72071       -1.68497        0.59332
C        -16.37261        0.56400       -0.42099
C        -17.77682        0.66553        0.18615
C        -18.72529        1.53906       -0.64311
C        -20.18145        1.60568       -0.14443
C        -20.30283        2.23831        1.24864
C        -21.06547        2.34846       -1.15485
H          3.83616        3.36928       -1.73756
H          9.80597        4.21199        0.50958
H         10.39217       -2.12867        1.31052
H          2.69723       -1.34629       -2.07610
H          2.14048        1.42217       -1.47060
H          2.01059        0.46086       -3.77031
H          3.07474        1.89150       -3.76052
H          3.77942        0.25412       -3.80483
H          2.14018       -1.76979        0.38827
H          2.14405       -0.03596        0.65249
H          0.22396        0.19890       -1.02007
H          0.28866       -1.52845       -1.31686
H          5.10651        6.70876       -0.74190
H          5.28465        6.18431       -2.42486
H          4.04007        5.44880       -1.39621
H          8.97845        6.10771        0.36863
H          8.52771        8.25895       -0.56804
H          7.05191        7.62387       -1.50199
H         11.70729        3.65072        2.22458
H         13.01303        2.53573        1.77247
H         12.23950        3.55353        0.53799
H         12.47036       -1.18507        1.31521
H         13.27361        0.33039        1.69277
H         13.15285       -1.14139        3.71705
H         12.21117        0.34820        3.98719
H         11.37386       -1.17227        3.61532
H          9.26382       -4.50085        2.06991
H          8.40379       -5.55615        0.91640
H          9.84138       -4.63372        0.40050
H          3.61290       -3.61718        0.23291
H          1.89839       -4.87469       -3.45842
H          3.33056       -5.93988       -3.51797
H          1.89432       -6.43280       -2.54803
H         -2.70509       -2.04959        1.50949
H         -2.55219       -0.39259        2.10359
H         -4.25674       -1.16336       -0.38436
H         -3.97821        0.83680        2.83153
H         -5.30059        1.88900        2.26794
H         -5.66802        0.39872        3.14408
H         -6.56158        1.34624        0.17111
H         -6.25565       -0.16887       -0.68868
H         -7.38565       -1.43080        1.18250
H         -7.75241        0.09365        1.99259
H         -9.01451        0.86728       -0.05634
H         -8.74492       -0.70361       -0.80714
H        -10.25952       -0.23967        1.81854
H         -9.26489       -2.53997        1.69039
H        -11.02767       -2.61429        1.56648
H        -10.03041       -2.78842        0.10358
H        -11.31598        0.77006       -0.22049
H        -11.34834       -0.81436       -0.98956
H        -12.88772       -1.65975        0.80719
H        -12.79442       -0.10594        1.63518
H        -13.75934        1.02219       -0.40888
H        -13.91921       -0.54471       -1.19756
H        -15.30366        0.25649        1.41829
H        -15.76711       -2.19899       -0.38292
H        -14.99588       -2.22637        1.22022
H        -16.70484       -1.79419        1.07384
H        -15.99093        1.58763       -0.58865
H        -16.43995        0.10415       -1.42565
H        -18.22006       -0.34069        0.28914
H        -17.69289        1.06659        1.21186
H        -18.32020        2.56773       -0.70198
H        -18.73004        1.16216       -1.68232
H        -20.55442        0.56538       -0.07474
H        -19.91874        3.27358        1.24509
H        -21.35465        2.27687        1.57590
H        -19.74210        1.67702        2.01197
H        -21.02610        1.87669       -2.15031
H        -22.11938        2.36531       -0.83253
H        -20.73740        3.39612       -1.27094

