%nproc=3
%Mem=2GB
# td=(NStates=1) iop(3/107=0140000000,3/108=0140000000) iop(3/107=0140000000,3/108=0140000000) CAM-B3LYP/6-31G(d,p) 

TD

0 1
12 -5.68208393959396  1.22472249995000  0.19124179297930
 6 -4.95604572637264 -2.05832979767977 -0.44889795489549
 6 -3.42462392229223  1.17586012751275  2.80063150135014
 6 -6.13454987728773  4.49371739483948  0.64081644284428
 6 -8.06756767476748  1.17251593399340 -2.38771286518652
 7 -4.36836392089209 -0.30341626472647  1.01830199719972
 6 -4.23708892929293 -1.51877305870587  0.58043176167617
 6 -3.10675207690769 -2.29868106670667  1.46067165576558
 6 -2.88511266666667 -1.26175684538454  2.63265005160516
 6 -3.57165396539654 -0.10553970657066  2.07689834843484
 6 -3.40284239223922 -1.70980767336734  3.92871073047305
 6 -2.00110495379538 -2.66397039023902  0.58823300940094
 6 -1.04329209210921 -3.47622271017102  1.34719859675968
 6  0.18948481588159 -3.94909978207821  0.64880304140414
 8  0.55680953485349 -3.41728141694169 -0.43241325672567
 8  1.08455013721372 -4.83163830863086  1.22851884038404
 7 -4.88691724272427  2.66483672037204  1.43928061466147
 6 -4.02829691689169  2.43800181618162  2.42828805460546
 6 -3.69338987618762  3.64520460296030  3.09726867126713
 6 -4.48770452615262  4.59542800830083  2.47130301450145
 6 -5.22511187358736  3.91829650615061  1.50750590249025
 6 -2.77255588048805  3.78915599929993  4.26551042154215
 6 -4.60086278627863  6.02259229342934  2.88803424022402
 8 -4.08135062236224  6.57067189738974  3.78036200870087
 7 -7.01228287788779  2.55322325482548 -0.59460212791279
 6 -7.07144934273427  3.90839124462446 -0.27017522062206
 6 -7.98966410661066  4.57754881168117 -1.19937274637464
 6 -8.48551158395840  3.56946607670767 -2.06747129952995
 6 -7.89602341384138  2.38260643474347 -1.65633940374037
 6 -8.31429370807081  5.95799716941694 -1.16255739033903
 6 -9.54880135853585  3.76034697299730 -3.07225977457746
 6 -8.84554353505351  4.04467583068307 -4.48517176387639
 7 -6.42244801210121 -0.09560474067407 -1.07482850325033
 6 -7.36870047674767  0.01816091049105 -1.97492341494149
 6 -7.49024214081408 -1.23718887158716 -2.81176420102010
 6 -6.61521700540054 -2.07389116241624 -2.07625683558356
 6 -5.93844176767677 -1.35151918141814 -1.13663152785279
 6 -8.46458183288329 -1.65405519411941 -3.85364628402840
 6 -6.19169279637964 -3.51148025402540 -1.97316271017102
 8 -6.53511675227523 -4.54084905500550 -2.62533277897790
 6 -4.98011826532653 -3.55030679737974 -0.94589120992099
 6 -5.26274340194019 -4.59956515811581  0.16715386638664
 8 -5.69766394899490 -4.35346127952795  1.24154127442744
 8 -4.87706766996700 -5.77016090019002 -0.31478564996500
 6 -5.24251760096010 -6.94705829692969  0.43054058885889
 6  2.24599128072807 -5.08203446364636  0.46014399569957
 6  3.41568487858786 -4.14680617991799  0.93173445924592
 6  4.01079018271827 -3.23863368426843  0.23241561656166
 6  3.70743564086409 -2.96386957535754 -1.20196786558656
 6  5.25795000100010 -2.50691495969597  0.79185103600360
 6  6.62301790649065 -2.78451340434043  0.20203052895290
 6  7.67350647734774 -1.74902654845485  0.68314214881488
 6  9.08896750525053 -2.10206618861886  0.08387167396740
 6  9.50835791589159 -3.53963386588659  0.19502262726273
 6  10.02039747534753 -0.97380800170017  0.47730569396940
 6  11.32184534183418 -0.92603539863986 -0.23204851545155
 6  12.30950857145715  0.18465765626563  0.27200798899890
 6  13.63167256135613  0.41780146704670 -0.45586534373437
 6  14.64844301730173 -0.86303703370337 -0.30742742794279
 6  14.19698963716372  1.70477524972497 -0.11563920632063
 6  15.46350563146315  2.07571950725072 -0.94283139083908
 6  16.01788140784078  3.44801731173117 -0.70771186418642
 6  17.24335873057306  4.00883979947995 -1.48780982878288
 6  16.88915789788979  4.08764432713271 -2.93514583458346
 6  17.67047046624662  5.35459358535854 -0.93332428942894
 1 -2.80668617451745  1.26522338593859  3.67086469766977
 1 -6.30707159005901  5.58645484768477  0.56607637033703
 1 -8.64628982808281  1.29521378287829 -3.35260064096410
 1 -3.69960702590259 -3.20205332203220  1.83877962006201
 1 -1.77147823382338 -1.13339094729473  2.69186135213521
 1 -2.79000832603260 -2.44380096099610  4.14736468236824
 1 -3.20733733383338 -0.97266938463846  4.72192832873287
 1 -4.53746542234223 -1.84838275627563  3.90920414301430
 1 -2.31782894849485 -3.36115916091609 -0.13544127872787
 1 -1.59903060276028 -1.74140276767677  0.07647848914892
 1 -0.88162255235524 -3.00184015631563  2.23138767986799
 1 -1.68555803440344 -4.30510734703470  1.79117815451545
 1 -1.77902655475548  3.59155384208421  4.17051943304330
 1 -3.02974062806281  4.76282592169217  4.76807247014701
 1 -2.98820875337534  3.16216941104110  5.14056103290329
 1 -5.43139699899990  6.51656963946395  2.22510462626263
 1 -10.21709569206921  2.95299245114511 -3.16549770437044
 1 -10.37428491139114  4.68859639413941 -2.82712570517052
 1 -9.49752551345134  4.41685958595860 -5.38027433803380
 1 -8.09198316431643  4.94103604420442 -4.30158984078408
 1 -8.32267254215422  3.08216253015302 -4.78923303800380
 1 -8.22371895349535 -1.07426068376838 -4.82471244024402
 1 -8.56860648854886 -2.64002106240624 -4.05187453135314
 1 -9.52870611971197 -0.99906654125412 -3.64606889198920
 1 -4.22057383338334 -3.94819064206421 -1.49778470857086
 1  2.54438238203820 -6.05433272637264  0.56428481638164
 1  1.85706903350335 -4.91438996539654 -0.70982641774177
 1  3.59263524592459 -4.17528765106511  2.06555491959196
 1  2.56246369826983 -3.07674922982298 -1.32100475057506
 1  3.88730606860686 -1.83177787838784 -1.49264748224823
 1  4.30696320372037 -3.62928478477848 -1.79406086338634
 1  5.12917678667867 -1.30971651625163  0.87166755785579
 1  5.44257661606161 -2.68690300750075  1.94801868816882
 1  7.15079429942994 -3.68214251375137  0.44104342604260
 1  6.46127496699670 -2.74172638863886 -0.82318200440044
 1  7.39769057065707 -0.71868842314231  0.30975972927293
 1  7.87541645184518 -1.73803205170517  1.73895136753675
 1  8.91656755635564 -2.00991903260326 -0.91305952465247
 1  8.76525869126913 -4.20638949884989 -0.20192266246625
 1  10.42832586198620 -3.70736409110911 -0.26164374627463
 1  9.43409015661566 -3.93691942054205  1.13636459945995
 1  9.51216227712771 -0.09159074867487  0.25521469586959
 1  10.41625058365837 -0.95867418671867  1.50589152645265
 1  11.94392632373237 -1.75932325402540 -0.17117642544254
 1  11.11273721392139 -1.02510414591459 -1.30585142884288
 1  12.00044006210621  1.13856692849285 -0.23866107650765
 1  12.42747350605060  0.38651993529353  1.39304847994799
 1  13.23777451975197  0.44133887668767 -1.56708291309131
 1  15.00091031823182 -0.83908692599260  0.68812390989099
 1  13.80886127262726 -1.76718989788979 -0.24973122722272
 1  15.33018287478748 -0.92162549024902 -1.16652905590559
 1  13.48135738133813  2.66134443364336 -0.25031490879088
 1  14.51255886808681  1.68620503500350  0.99021784908491
 1  16.23343207030703  1.39086454795480 -0.73802161716172
 1  15.09805460096010  2.01000925232523 -2.00858438933893
 1  15.16105756785679  4.03642685038504 -1.05794707470747
 1  16.20150978487849  3.65420137953795  0.37345980478048
 1  18.27034685148515  3.32357586608661 -1.50503489138914
 1  16.07459459625963  4.70813809270927 -3.35121940084008
 1  17.71028341824182  4.27925431863186 -3.58703613721372
 1  16.77517220252025  3.19757466866687 -3.39879043224322
 1  17.86672454645464  5.52031268426843  0.15427459315932
 1  18.83616122692269  5.85659188568857 -1.26683882498250
 1  16.89808237803780  6.02981739183918 -1.39064741684168
 1 -4.67536542114211 -7.65378647804781 -0.17584190019002
 1 -6.46094658595860 -6.97151653305331  0.30842068536854
 1 -5.03486570397040 -6.76392626882688  1.46794966336634
 8 -7.78620151545154  6.85369540094009 -0.45210863926393
 1 -9.21777516131613  6.18995641134113 -1.89589805730573

