%nproc=3
%Mem=2GB
# td=(NStates=1) iop(3/107=0140000000,3/108=0140000000) iop(3/107=0140000000,3/108=0140000000) CAM-B3LYP/6-31G(d,p) 

TD

0 1
12 -5.54488021922192  1.27747777547755  0.19809247804780
 6 -5.05404552635263 -2.13804776947695 -0.33449651475148
 6 -3.39658111801180  1.13365590709071  2.80602204040404
 6 -6.25161158345835  4.60662868596860  0.62121448264826
 6 -7.97100801880188  1.15826450885088 -2.41607570147015
 7 -4.36966405090509 -0.22230815391539  1.01164133113311
 6 -4.25756097649765 -1.59242042344234  0.68468218671867
 6 -3.24154555625563 -2.28232943154315  1.47455304390439
 6 -3.05674983038304 -1.32672334203420  2.63974076067607
 6 -3.56994379437944 -0.07854700730073  2.16529718831883
 6 -3.63092520052005 -1.78354504710471  3.92549040844084
 6 -1.98281312461246 -2.63799779297930  0.60391457755776
 6 -0.97618538143814 -3.55270035793579  1.30677455435544
 6  0.22647851525153 -3.94301917401740  0.51185934703470
 8  0.61043489738974 -3.42198188698870 -0.59874989038904
 8  1.06244792699270 -4.72516766156616  1.24716070457046
 7 -4.93390194119412  2.63551378807881  1.48744543114311
 6 -3.99433352055206  2.51100911691169  2.43448867466747
 6 -3.81124166136614  3.60497057955796  3.20959990439044
 6 -4.54693044874487  4.60781924742474  2.59760564476448
 6 -5.34251361376138  3.98083275977598  1.51957710961096
 6 -2.93350197509751  3.65471255495550  4.43446731723172
 6 -4.59486218621862  6.05659569376938  2.96454189098910
 8 -4.05630811811181  6.54364919511951  3.87337130963096
 7 -6.87296894649465  2.60280821332133 -0.75784845254525
 6 -6.92223442124212  3.94815522102210 -0.37417562066207
 6 -8.04295943614362  4.58753981078108 -1.25402821192119
 6 -8.42698573137314  3.66217534763476 -2.10375492789279
 6 -7.68175198669867  2.40706888098810 -1.79394316411641
 6 -8.37680995969597  6.02177354705471 -1.21855298989899
 6 -9.41958843724372  3.82837377567757 -3.11414396299630
 6 -8.68998797949795  3.95907727082708 -4.47771101780178
 7 -6.34735050235023 -0.17886306650665 -1.15701672207221
 6 -7.30801440814081 -0.07508841444144 -2.07115303790379
 6 -7.55936905350535 -1.44223937663766 -2.65435846044605
 6 -6.75834131783178 -2.24027780108011 -2.02535174507451
 6 -6.01594951845185 -1.44433846334633 -1.06801466616662
 6 -8.51822719741974 -1.72375216381638 -3.64327524692469
 6 -6.21001462856286 -3.58035714171417 -2.03489888378838
 8 -6.64246748734873 -4.50729569966997 -2.64556480218022
 6 -5.07522777627763 -3.55799756645665 -0.92201882268227
 6 -5.38696582418242 -4.64948014961496  0.18835598659866
 8 -5.75805998859886 -4.46350228362836  1.36327344764476
 8 -5.14342430563056 -5.82432631673167 -0.37200137153715
 6 -5.43415676487649 -6.93697728882888  0.44704223902390
 6  2.33173985558556 -5.08813507370737  0.63209119041904
 6  3.45268857895790 -4.13758525782578  1.00062134793479
 6  4.07735683938394 -3.21751157205721  0.11792416741674
 6  3.76556145344534 -3.04665785418542 -1.28581625042504
 6  5.10062426842684 -2.31082535073507  0.72224407530753
 6  6.55147075177518 -2.62972792579258  0.03225355125513
 6  7.69277840454045 -1.73282492829283  0.63557739233923
 6  8.99615822432243 -1.92965894789479  0.03187647444744
 6  9.59328640874087 -3.30326022852285  0.24562768776878
 6  9.91015645124513 -0.78078869976998  0.36784474787479
 6  11.33928708600860 -0.84866766186619 -0.17025233583358
 6  12.34694231483148  0.29758894939494  0.20579136733673
 6  13.66163555765577  0.41376106300630 -0.51067082428243
 6  14.56799497249725 -0.78666939693969 -0.44667135233523
 6  14.28291823002300  1.77688246044604 -0.25312295469547
 6  15.53738301920192  2.10161209650965 -1.04136124382438
 6  16.19026864656465  3.38320083008301 -0.64998609160916
 6  17.50544493919392  3.80693960946095 -1.45179622742274
 6  17.07785676777678  4.12571813451345 -2.87139945994599
 6  18.06992041124112  5.18514664066407 -0.83389434643464
 1 -2.76853235913591  1.23520038363836  3.56480409160916
 1 -6.57604848774877  5.61901810401040  0.89536929962996
 1 -8.94253945304530  1.02691695319532 -3.09406478737874
 1 -3.60915798099810 -3.21333445014501  1.53894963706371
 1 -1.87071815781578 -1.24129173737374  2.63334550055006
 1 -3.05039436463646 -2.67996457735774  4.07363730963096
 1 -3.51116771687169 -1.00620273797380  4.44554068996900
 1 -4.84854653045304 -2.03819173717372  3.70466368896890
 1 -2.45450261586159 -2.84044708970897 -0.42228996359636
 1 -1.53059375907591 -1.55566419381938  0.34900574187419
 1 -1.02479686978698 -3.12527249954996  2.32916745784578
 1 -1.47524700330033 -4.52358919521952  1.62099113581358
 1 -1.82908156025603  3.39299398609861  4.25971835293529
 1 -2.76857451145114  4.75703534263426  4.62650831373137
 1 -3.32255218771877  2.92843603770377  5.25108208500850
 1 -5.18078193749375  6.48324630713071  2.05559767556756
 1 -10.10285426792679  2.94162131403140 -3.24903605820582
 1 -10.09599708260826  4.62818035253525 -3.07961095369537
 1 -9.48145390629063  4.20159805980598 -5.26527283788379
 1 -8.00168413441344  4.92970491109111 -4.49798948074807
 1 -8.19412968786879  3.04648896279628 -4.56415052975297
 1 -8.66738331993199 -0.82140539823982 -4.55735570457046
 1 -8.05756538443844 -2.78744580488049 -4.23390273417342
 1 -9.68902215131513 -2.00967760236024 -3.16763104820482
 1 -3.95274705070507 -4.19653547654765 -1.10910584068407
 1  2.67343528732873 -5.99874716781678  1.14818320622062
 1  1.99412273887389 -5.22879140554055 -0.45380081518152
 1  3.82129811221122 -4.09456957925793  1.99207757185719
 1  2.79111656355636 -3.52205376027603 -1.54904755485549
 1  3.86223356135614 -1.92617731833183 -1.65242345984598
 1  4.59815232263226 -3.59907176347635 -2.00560201750175
 1  5.16580044904491 -1.16307185178518  0.58503889498950
 1  5.08998135653565 -2.47536185338534  1.86159004530453
 1  6.88838805880588 -3.63110741024102  0.23668298999900
 1  6.27259609910991 -2.44617683368337 -1.01207089328933
 1  7.43426422802280 -0.50301685598560  0.52970172347235
 1  7.73438234843484 -2.00484873337334  1.81090856325633
 1  8.82561846144615 -1.76339438013801 -0.97575579427943
 1  8.80098226362636 -4.19728858875888  0.47974550435043
 1  10.32825585498550 -3.74795815051505 -0.59491707360736
 1  9.96388313591359 -3.08760448904891  1.31897286028603
 1  9.32539360026002  0.10597900830083  0.07444661906191
 1  10.11160011861186 -0.72979129842984  1.62343328062806
 1  11.58367029812981 -2.06332365406541  0.16522721492149
 1  11.27088302850285 -0.69850148564856 -1.20891173487349
 1  11.60572059015901  1.21307437923792  0.05625841544154
 1  12.43884464316432  0.26640792409241  1.31545072017202
 1  13.36182692499250  0.46236097889789 -1.56302250705070
 1  15.15583581078108 -0.82939595689569  0.55546064356436
 1  13.77244763126313 -1.76410958985899 -0.41605785988599
 1  15.25292514901490 -0.84811813951395 -1.24197660066007
 1  13.53509275487549  2.54560285948595 -0.38059793709371
 1  14.71651926412641  1.80387680218022  0.94027285458546
 1  16.33174190129013  1.38866432793279 -1.06188400340034
 1  15.25078987448745  1.93456170757076 -2.10492402330233
 1  15.52034349644964  4.41972518021802 -0.75028630863086
 1  16.57495712961296  3.50829678907891  0.43226568536854
 1  18.36876669346935  2.98832234073407 -1.41853624152415
 1  16.29708684548455  4.93883116201620 -2.95464974387439
 1  17.89662205210521  4.58850524372437 -3.41215864946495
 1  16.69782446774677  3.13757866906691 -3.36053660686069
 1  18.31068894289429  5.01158181118112  0.17929709540954
 1  18.89613722452245  5.38260448694870 -1.32997513861386
 1  17.26140871067107  5.88960337043704 -0.83311166326633
 1 -4.89996788138814 -7.75633673307331 -0.01050536653665
 1 -6.52956344764476 -7.03409279067907  0.65804564786479
 1 -4.95836805420542 -6.77574745094509  1.45812868126813
 8 -7.92281517681768  6.85112514391439 -0.44551798019802
 1 -9.25811919571957  6.51564898059806 -1.97492596009601

