%nproc=3
%Mem=2GB
# td=(NStates=1) iop(3/107=0140000000,3/108=0140000000) iop(3/107=0140000000,3/108=0140000000) CAM-B3LYP/6-31G(d,p) 

TD

0 1
12 -5.50354608580858  1.27795782348235  0.13477614641464
 6 -5.01815193699370 -2.04034799949995 -0.34061712681268
 6 -3.49900136003600  1.18581112261226  2.79802124032403
 6 -6.16877329962996  4.64724274737474  0.56840920212021
 6 -7.95716663466347  1.20377906030603 -2.48289238313831
 7 -4.33663074757476 -0.27722364546455  1.11814198119812
 6 -4.33269849024903 -1.58031921332133  0.72582630113011
 6 -3.18169957165717 -2.28993019161916  1.47974356295630
 6 -2.87235139053905 -1.30290095979598  2.59741652825283
 6 -3.56616341634163 -0.05219437203720  2.12150280888089
 6 -3.31200330833083 -1.74716140874087  4.04385224462446
 6 -1.95522036533653 -2.68434242744274  0.65052923902390
 6 -0.93399116201620 -3.55888097599760  1.35367924482448
 6  0.35865173257326 -3.86680155225523  0.59640780188019
 8  0.50691454535454 -3.49015870467047 -0.56121613701370
 8  1.14065574777478 -4.61495664046405  1.31665765426543
 7 -4.94393294429443  2.68007824452445  1.41299798639864
 6 -4.11137522472247  2.46931494749475  2.54353957975798
 6 -3.75638617581758  3.67767785028503  3.18512745714571
 6 -4.62053780948095  4.66431489698970  2.57795367956796
 6 -5.25733509590959  3.94252892939294  1.47844299619962
 6 -2.74730335523552  3.80284736843684  4.15614948544854
 6 -4.74384708470847  6.08209824402440  3.01016645344534
 8 -4.18912139943994  6.65572040224022  3.97010098259826
 7 -6.82457410701070  2.59147708020802 -0.79544221192119
 6 -6.94545674347435  3.89869027452745 -0.35126332943294
 6 -7.92259739993999  4.54692574937494 -1.14050685978598
 6 -8.43750678347835  3.61733086318632 -2.14149870227023
 6 -7.78358216971697  2.40233840794079 -1.76293006280628
 6 -8.35945822452245  5.96013738343834 -1.08099923452345
 6 -9.42533901230123  3.79270020832083 -3.23412596119612
 6 -8.64504348504851  3.83897526062606 -4.55687893459346
 7 -6.39913568086809 -0.09637481768177 -1.10044106450645
 6 -7.39747335403540  0.04816391079108 -1.99005492809281
 6 -7.55259837643764 -1.43937909060906 -2.72057508210821
 6 -6.67295277897790 -2.19031280458046 -2.06036524642464
 6 -5.98841676517652 -1.42144617411741 -1.06886475117512
 6 -8.53178855355536 -1.65619540814081 -3.79105002440244
 6 -6.23972759985999 -3.51701080708071 -1.91204659855986
 8 -6.55196843744374 -4.50349531963196 -2.69358960466047
 6 -5.12035228872887 -3.47166893359336 -0.89818643944394
 6 -5.28165529312931 -4.60999620122012  0.05423257425743
 8 -5.70164434703470 -4.37936386978698  1.22505962626263
 8 -4.97257722092209 -5.88146203030303 -0.43239741114111
 6 -5.26123947314731 -6.93236682778278  0.50425796059606
 6  2.35438211981198 -5.10472673287329  0.73859184048405
 6  3.48192150225023 -4.19177067636764  0.98552983878388
 6  4.07302640634063 -3.25186500740074  0.05899827482748
 6  3.76242113941394 -3.13406659505951 -1.41535920472047
 6  5.12907711371137 -2.43241750995100  0.57331918281828
 6  6.49897550225023 -2.73024797779778  0.02865319121912
 6  7.64566369306931 -1.85428707450745  0.58371220582058
 6  8.95036364486449 -2.02975895789579  0.02145543234323
 6  9.55065214531453 -3.49976987948795  0.29472259725973
 6  9.96076151175118 -0.99420004090409  0.42317028042804
 6  11.30277343464346 -0.80167296239624 -0.27818312891289
 6  12.14253187378738  0.42134132463246  0.21461224942494
 6  13.48086748084808  0.46622630953095 -0.49314907210721
 6  14.52609078207821 -0.64450518051805 -0.18227491269127
 6  14.10295023322332  1.87362213441344 -0.23804144654465
 6  15.45428470937094  2.12571450675068 -1.07446455415542
 6  16.03624324402440  3.47774028402840 -0.63350444344434
 6  17.37158155285529  3.78952786828683 -1.37588863666367
 6  17.11775075717572  4.00960652335234 -2.95560788078808
 6  18.03973739293929  5.04016214221422 -0.87254821182118
 1 -2.68052355825583  1.20433729732973  3.71500911211121
 1 -6.37308819171917  5.78852505470547  0.56428619131913
 1 -8.53466866596660  1.22946720822082 -3.07016239713971
 1 -3.61419848504850 -3.29940305700570  1.82077781988199
 1 -1.80510159615962 -1.29992760096010  2.66739890589059
 1 -2.93244256945695 -2.69989657055706  3.97518746464646
 1 -3.09375597569757 -1.08571068876888  4.83963009890989
 1 -4.39202087788779 -1.92571048904890  4.07420064266427
 1 -2.22620978657866 -3.15203824882488 -0.26680441504150
 1 -1.51989268896890 -1.74606323372337  0.11483232453245
 1 -0.75700009010901 -3.05405537783778  2.38669321042104
 1 -1.33807328592859 -4.56980381668167  1.49817885458546
 1 -1.72488114021402  3.88616330303030  3.68812119321932
 1 -2.93586124012401  4.82355199429943  4.68063372627263
 1 -2.71070100260026  2.94697789188919  4.89588656545654
 1 -5.39797365666567  6.60536851935194  2.35919803560356
 1 -10.16948093059306  2.93840099199920 -3.32064321892189
 1 -9.86978446134614  4.70338787328733 -3.24797779037904
 1 -9.36122188308831  3.97149504950495 -5.46291260186019
 1 -8.15421938793879  4.92024396499650 -4.51766144794479
 1 -8.05169544444444  2.90044435833583 -4.76227034173417
 1 -8.66508308990899 -0.70179343704370 -4.59165913491349
 1 -8.52249187708771 -2.62821988228823 -4.17951729562956
 1 -9.52495574467447 -1.58524515911591 -3.27574185928593
 1 -4.18576035203520 -3.64846066906691 -1.44053898399840
 1  2.48434637843784 -6.27655494859486  0.88072646054605
 1  2.22390571717172 -5.21827035343534 -0.50245568066807
 1  3.49393537593759 -4.10437055935594  2.17531589568957
 1  2.72207965986599 -3.40533208810881 -1.58988163826383
 1  3.59039637763776 -2.03016771737174 -1.68341655915592
 1  4.41411391879188 -3.83001485778578 -1.89394085138514
 1  4.75565943494350 -1.39319486408641  0.67289768086809
 1  5.29417177557756 -2.79170348754876  1.81743562986299
 1  6.73995321532153 -3.66328062756276  0.14571389308931
 1  6.52871171067107 -2.63888610461046 -1.01816150235024
 1  7.54629543114311 -0.69208576287629  0.13341209450945
 1  7.61865077527753 -1.89730797929793  1.65250272267227
 1  8.94561046064607 -1.96591463216322 -1.08219643834383
 1  8.85108727412741 -4.20840970087009 -0.17181965216522
 1  10.50971400080008 -3.43142649734973 -0.22814039593959
 1  9.58050479807981 -3.76817254585459  1.39506046904691
 1  9.31560262116212 -0.01824341394139  0.32758193259326
 1  10.02030098869887 -1.20509882918292  1.48568950625063
 1  11.77428936003600 -1.64836215791579 -0.08968827662766
 1  10.84948088828883 -0.86704834033403 -1.43332417611761
 1  11.43303332143214  1.26082915471547  0.21778456805681
 1  12.33749450815082  0.20899218251825  1.24731390649065
 1  13.33727446974697  0.57759250205020 -1.49634583938394
 1  14.51887211441144 -0.59504252155216  0.93228832633263
 1  13.81129151565157 -1.57211038993899 -0.39736599069907
 1  15.36200605710571 -0.60599392709271 -0.86375877887789
 1  13.30249949554955  2.61179947914792 -0.43668354565457
 1  14.42688030023002  2.01831824632463  0.81531035833583
 1  16.32337106420642  1.53872933443344 -0.71153896889689
 1  15.36185098059806  1.79627787918792 -2.15015854675468
 1  15.32403386548655  4.39007221492149 -0.83805508550855
 1  16.43451308520852  3.30022598199820  0.45704816361636
 1  18.03117293409341  2.99434294279428 -1.03792818071807
 1  16.49880701750175  4.90891817071707 -3.06676095499550
 1  18.12509489938994  4.17199359255926 -3.46511394499450
 1  16.53175786108611  3.13679859105911 -3.43713426662666
 1  18.40313818781878  4.88628928192819  0.29253841954195
 1  19.00354796559656  5.30080630713071 -1.40925306640664
 1  17.64346691649165  6.03441785188519 -1.02126047814781
 1 -4.57118500310031 -7.81289238863886 -0.04243855985599
 1 -6.31127161846185 -7.27607698909891  0.73463330663066
 1 -4.94843706110611 -6.55316519271927  1.53336620502050
 8 -8.03247614291429  6.75958598999900 -0.20414384278428
 1 -9.21147453125313  6.22745016071607 -1.77721618911891

