%nproc=3
%Mem=2GB
# td=(NStates=1) iop(3/107=0140000000,3/108=0140000000) iop(3/107=0140000000,3/108=0140000000) CAM-B3LYP/6-31G(d,p) 

TD

0 1
12 -5.62143787498750  1.23182321002100  0.21176384518452
 6 -4.98110823262326 -2.09928389308931 -0.38297136223622
 6 -3.29823128302830  1.25233777527753  2.78265970417042
 6 -6.28883530583058  4.50795881898190  0.70027238843884
 6 -8.03199411741174  1.16324500690069 -2.33129722362236
 7 -4.28429551405141 -0.20544646774677  1.00227039403940
 6 -4.17458267866787 -1.54457563896390  0.67866158465847
 6 -3.22051345304530 -2.21384258285829  1.49459504810481
 6 -2.85470962636264 -1.20923159285929  2.61858864546455
 6 -3.48025482548255  0.00617146454645  2.06570722932293
 6 -3.59254136213621 -1.77138383098310  3.96277413681368
 6 -1.95834067736774 -2.60172416561656  0.68926311241124
 6 -1.05552331523152 -3.67176226412641  1.31491536843684
 6  0.26725259265927 -3.87925279737974  0.60920908200820
 8  0.58159201310131 -3.31510119891989 -0.46116613201320
 8  1.00747242944294 -4.78572371717172  1.25681166966697
 7 -4.96070462146215  2.64420465716572  1.50986767336734
 6 -3.96989107630763  2.47986600260026  2.49274450025002
 6 -3.68894943214321  3.71551163366337  3.12169111351135
 6 -4.55401115681568  4.68271673717372  2.58969485368537
 6 -5.30565992839284  3.94159883638364  1.60659581148115
 6 -2.64627325222522  3.98285536923692  4.12241611211121
 6 -4.75831853185319  6.05076511071107  3.02528796559656
 8 -3.97317980528053  6.64587941814181  3.80132410491049
 7 -6.97022867246725  2.52815074757476 -0.67621028872887
 6 -7.05919811761176  3.87280768626863 -0.40027823092309
 6 -8.03412855305531  4.58282933973397 -1.21630443954395
 6 -8.49617265006501  3.57033616371637 -1.95654020642064
 6 -7.79333314481448  2.29892806690669 -1.69292306210621
 6 -8.47954023272327  5.92177354705471 -1.11018215281528
 6 -9.53876035443544  3.73413435173517 -3.11568411701170
 6 -8.92484146484649  3.96006736983698 -4.49119236593659
 7 -6.36922268956896 -0.07577275747575 -1.14088510891089
 6 -7.37443104980498  0.02081117551755 -2.09389531213121
 6 -7.47726084268427 -1.28694384708471 -2.77495051965197
 6 -6.69324480818082 -2.18423219651965 -2.07908711861186
 6 -5.92251017451745 -1.34181821132113 -1.16207407210721
 6 -8.37794316901690 -1.58613840244024 -3.88368928832883
 6 -6.27541116821682 -3.47906701270127 -2.06916231013101
 8 -6.58903214381438 -4.47798276837684 -2.70232047774777
 6 -5.11791204470447 -3.52395416211621 -0.87856447724772
 6 -5.27688481608161 -4.64853005460546  0.09615676667667
 8 -5.65313949654966 -4.51678761216122  1.26476359665967
 8 -5.06015597879788 -5.85483936803680 -0.33313748514851
 6 -5.39483283248325 -6.98406199729973  0.41626916171617
 6  2.33370005160516 -5.10113637383738  0.65628360966097
 6  3.40005331543154 -4.21971347064706  0.98129941574157
 6  4.08312741644164 -3.39524934583458  0.13611598659866
 6  3.70014491179118 -3.22557574597460 -1.31710937973797
 6  5.17506171217122 -2.47038130633063  0.71763361426143
 6  6.50943654835484 -2.69667462046205  0.18537886378638
 6  7.62047117381738 -1.88431007680768  0.63147698229823
 6  8.99269787828783 -2.09854583658366  0.09337262406241
 6  9.69657673777378 -3.43469337183718  0.37663078807881
 6  10.03098853445345 -0.96183680458046  0.57089505290529
 6  11.33627678497850 -0.83933672877288 -0.33736904750475
 6  12.24498211881188  0.28212740324032  0.22647343554355
 6  13.49154854895490  0.51171085798580 -0.66385614281428
 6  14.47929610261026 -0.68333906390639 -0.58051473667367
 6  14.27235717391739  1.71920669286929 -0.19532717511751
 6  15.49283856475648  2.18351028632863 -1.11335844354435
 6  16.05436505620562  3.59130164016402 -0.65390648364837
 6  17.41681607630763  3.96833574907491 -1.29749079687969
 6  17.23052203430343  3.91326688938894 -2.83453577357736
 6  17.94633805300530  5.19238736473647 -0.79878083508351
 1 -2.55179068496850  1.39524638823882  3.66419403060306
 1 -6.45761664456446  5.57659386158616  0.82287204990499
 1 -8.64446964606461  1.11017527902790 -3.13084846574657
 1 -3.47133419861986 -3.23623674037404  1.77771351345135
 1 -1.83468455445545 -1.23388099629963  2.64398656465647
 1 -3.24293361856186 -2.76431301220122  4.03520346624663
 1 -3.26831343144314 -1.08034015171517  4.83136927282728
 1 -4.80170184598460 -1.68009592759276  3.92693591619162
 1 -2.45763292889289 -3.01052409740974 -0.17433516811681
 1 -1.20742144184418 -1.73045167256726  0.30601144244424
 1 -0.80267465756576 -3.28691866416642  2.39874441554155
 1 -1.50344982358236 -4.72243908020802  1.43196223292329
 1 -1.70063871597160  3.67609229592959  3.72628500960096
 1 -2.42459011301130  4.83690332943294  4.47946360926093
 1 -2.72578251075108  3.18717191129113  4.88122509930993
 1 -5.75592945224522  6.63614159665967  2.44932704850485
 1 -10.23590757325733  3.01125827772777 -3.03808496309631
 1 -10.07383486638664  4.62845037953795 -2.99064205680568
 1 -9.64763052395240  3.74366226622662 -5.20582689328933
 1 -8.23959792579258  4.89937187778778 -4.48772845464546
 1 -8.17500777567757  3.21224553845385 -4.72925704040404
 1 -8.06410299189919 -1.05533879157916 -4.70489045804580
 1 -8.09330895879588 -2.63762082238224 -4.17807715161516
 1 -9.49567281638164 -1.32176881148115 -3.86757104220422
 1 -4.15475725172517 -3.76149197219722 -1.58231316141614
 1  2.46876482028203 -5.97991528462846  1.16287467536754
 1  2.28102142874287 -5.30521904830483 -0.52292772787279
 1  3.78472445484548 -4.16831695399540  2.13361172527253
 1  2.61838929082908 -3.50347190209021 -1.61914456455646
 1  3.80110744874487 -2.11842654325433 -1.51135935343534
 1  4.49699220662066 -3.95600745704570 -2.01384284158416
 1  4.82202607160716 -1.38674421902190  0.37223761486149
 1  5.16520887928793 -2.56943126032603  1.79735362166217
 1  6.69373859385939 -3.77145144464446  0.33848317001700
 1  6.57900674017402 -2.29585180118012 -0.88234792099210
 1  7.28315911751175 -0.81383793809381  0.81962071537154
 1  7.70149906010601 -2.21076932543254  1.56241371377138
 1  9.14390028962896 -1.94213225392539 -1.13469168786879
 1  9.04731689708971 -4.24926378627863 -0.15309777997800
 1  10.68819184858486 -3.54059741444144 -0.09662724462446
 1  9.69166591419142 -3.76813254185419  1.38126908990899
 1  9.63054411531153 -0.11170275987599  0.13448262266227
 1  10.14561351995200 -1.04153247254726  1.60493143044304
 1  12.00957288838884 -1.86197351905190 -0.27062637043704
 1  10.97319325952595 -0.62642427792779 -1.32631347504750
 1  11.57293731183118  1.34610768256826  0.41963475307531
 1  12.78542930163016  0.03369465276528  1.24836401150115
 1  13.23685442774277  0.54942968576858 -1.71046725152515
 1  14.81451167836784 -0.96558957625763  0.26123122062206
 1  14.08856924342434 -1.54923810271027 -0.93248950305031
 1  15.22817267376738 -0.46569989768977 -1.44164656765677
 1  13.72950219581958  2.60684898409841 -0.33727360466047
 1  14.69344695689569  1.85834224872487  0.93040186748675
 1  16.30806953405340  1.32573803530353 -0.93736155115512
 1  15.21478627412741  2.19603785518552 -2.15429896079608
 1  15.07827929002900  4.44838804650465 -0.87686896689669
 1  16.44140377427743  3.53926988638864  0.46605906470647
 1  17.94986480328033  3.15702921142114 -0.97586197409741
 1  16.54601173797380  4.80519779867987 -3.16796107500750
 1  18.24576696659666  4.19287568076808 -3.27876531013101
 1  16.75884056935693  3.02739765096510 -3.18857941114111
 1  18.18012588658866  5.16869752275227  0.21430059575958
 1  18.94821243204321  5.28639486598660 -1.16173831493149
 1  17.29499206900690  6.07379178927893 -1.12141049314931
 1 -4.80976886148615 -8.03657475687569  0.18475415941594
 1 -6.61906239753975 -7.17364674607461  0.49227907120712
 1 -5.08351056845685 -7.03678355455546  1.54465733413341
 8 -7.89574246954695  6.83965399679968 -0.45151858025803
 1 -9.36349973377338  6.16314373007301 -1.78434690219022

