%nproc=3
%Mem=2GB
# td=(NStates=1) iop(3/107=0140000000,3/108=0140000000) iop(3/107=0140000000,3/108=0140000000) CAM-B3LYP/6-31G(d,p) 

TD

0 1
12 -5.64602033323332  1.23043307100710  0.18062073087309
 6 -5.02628275007501 -2.15810977567757 -0.34694775987599
 6 -3.51310277017702  1.20124266576658  2.79105054325433
 6 -6.26760318261826  4.53365138823882  0.64781714291429
 6 -7.95155607360736  1.15665434783478 -2.38181227512751
 7 -4.43176026052605 -0.24541046414641  0.98933910091009
 6 -4.22600782118212 -1.61574275567557  0.67332105060506
 6 -3.16393779547955 -2.29092029062906  1.40970655925593
 6 -2.91126528192819 -1.36338700840084  2.63873065966597
 6 -3.67136393639364 -0.06254540714071  2.12405306390639
 6 -3.44652676067607 -1.84709140174017  3.99362722212221
 6 -2.01034587788779 -2.68555254845485  0.58322250835084
 6 -0.99271703460346 -3.43611869976998  1.40578445534553
 6  0.21692756015602 -3.91114598669867  0.65198335943594
 8  0.56083993789379 -3.52583227202720 -0.48751876727673
 8  0.98286996919692 -4.76320146494649  1.36500248874887
 7 -4.89884843584358  2.66386662336234  1.46495318191819
 6 -3.99046313351335  2.42853086908691  2.53615884168417
 6 -3.87042757995800  3.65930601310131  3.30492943734373
 6 -4.56274202990299  4.59124759025903  2.62494837903790
 6 -5.26924628702870  3.95999067556756  1.52901805370537
 6 -2.92548117301730  3.85597268096810  4.48583245374537
 6 -4.69261196119612  5.99095913011301  2.96558199499950
 8 -4.12869535683568  6.62199702990299  3.93968794129413
 7 -6.76944859445945  2.55230316281628 -0.79171183888389
 6 -6.94875707350735  3.91952235773577 -0.40104830793079
 6 -7.84581972217222  4.56460751755175 -1.27246005510551
 6 -8.41902493529353  3.68441757185719 -2.04322887528753
 6 -7.65299911141114  2.44473264736474 -1.79685345514551
 6 -8.16868914761476  6.05203657335734 -1.15387652225223
 6 -9.48725520392039  3.89069000730073 -3.17270981958196
 6 -8.74026300700070  4.00178154125413 -4.54836808350835
 7 -6.30303607090709 -0.10527570777078 -1.13590461086109
 6 -7.27949155585558 -0.01423232883288 -2.18353427602760
 6 -7.53114623122312 -1.29147430013001 -2.77981100570057
 6 -6.65025050875088 -2.08433220652065 -2.07108631853185
 6 -5.95264318781878 -1.30884491399140 -1.08087595229523
 6 -8.50990636533653 -1.65103489208921 -3.85020593999400
 6 -6.22934656175618 -3.44974408040804 -2.03975936983698
 8 -6.52632587318732 -4.41055602570257 -2.70014025972597
 6 -5.01845209870987 -3.57906967366737 -0.87655427622762
 6 -5.22040916851685 -4.60874607620762  0.06722387338734
 8 -5.70045422802280 -4.45101103450345  1.15548266856686
 8 -4.78885884908491 -5.92234611871187 -0.36961113251325
 6 -5.24733808300830 -6.97049064016402  0.40452798759876
 6  2.25029171077108 -5.16635289548955  0.74421240254025
 6  3.34254756485649 -4.20380187948795  1.16386767256726
 6  4.00026913061306 -3.40905072597260  0.37713008800880
 6  3.71080597789779 -3.22504569296930 -1.11865953475348
 6  5.25924013001300 -2.50791505970597  0.84966681758176
 6  6.55756136083608 -2.79275422842284  0.11656198209821
 6  7.62358148484848 -1.87875952175218  0.67982181678168
 6  8.92748135663566 -2.04467044904490 -0.05191190439044
 6  9.55269234933493 -3.42894279677968  0.20034315931593
 6  9.90047548314832 -0.82586320722072  0.43661162456246
 6  11.22297545484548 -0.84412720782078 -0.40137544814481
 6  12.15005262586259  0.40441963246325  0.02134292249225
 6  13.51415080918092  0.50088977587759 -0.66113587078708
 6  14.40137831083108 -0.71002173217322 -0.38356504170417
 6  14.18513845204521  1.88484325652565 -0.26419406180618
 6  15.51780106100610  2.17669960526053 -1.01486859455946
 6  16.09544916461646  3.57132964296430 -0.67769886288629
 6  17.38023241794179  3.95987490299030 -1.39670071787179
 6  17.15909489158916  3.90608617131713 -3.03692601260126
 6  17.89684310351035  5.21624975097510 -0.89762071907191
 1 -2.99939544544454  1.16531339493949  3.72098971017102
 1 -6.49092997589759  5.65580178237824  0.90647040974097
 1 -8.87313251235124  1.24755901740174 -3.09198457935794
 1 -3.64108117331733 -3.10030314701470  1.83482922502250
 1 -1.91753283928393 -1.13320092829283  2.52712487848785
 1 -2.78603792899290 -2.78335491639164  4.41743168906891
 1 -3.30883748384839 -0.97097921562156  4.89665580148015
 1 -4.62557423322332 -2.06711462946295  4.13453667626763
 1 -2.45386255185519 -3.36667971297130 -0.20714844944494
 1 -1.51856255595560 -1.79935856325633  0.06940778207821
 1 -0.59353374347435 -2.91685165746575  2.29758429952995
 1 -1.54640411901190 -4.32171900820082  1.71257029372937
 1 -1.91684033613361  3.67612229892989  4.30799318041804
 1 -3.17042469646965  4.78036767586759  4.97063272617262
 1 -3.26604653715372  3.01937513161316  5.16992396919692
 1 -5.35984984428443  6.61020900340034  2.26963907970797
 1 -10.08662264476448  2.97724487638764 -3.23780493509351
 1 -10.02149963286329  4.79365690019002 -3.06376936953695
 1 -9.52622838373837  4.34392229222922 -5.16579288988899
 1 -7.94232819881988  4.81885382598260 -4.49846952875287
 1 -8.27198747364737  3.10874518841884 -4.76135024972497
 1 -8.39274585618562 -1.05932919061906 -4.74070403940394
 1 -8.57417704560456 -2.79478653895390 -3.98305764966497
 1 -9.65530877997800 -1.49853648824882 -3.47972225732573
 1 -4.21458323432343 -3.74875069806981 -1.47382231233123
 1  2.49029697349735 -6.21256854995500  0.95970435833583
 1  2.34314764136414 -5.03338186458646 -0.39653508860886
 1  3.75580156255626 -4.15984610691069  2.31284964906491
 1  2.68908636053605 -3.44280583548355 -1.11423407350735
 1  3.76510384838484 -2.08031273187319 -1.16326454395439
 1  4.23576608400840 -3.94720657695770 -1.73131458875888
 1  5.21575544454446 -1.28563410801080  0.84058444954496
 1  5.49803216161616 -2.75056937413741  1.94932881918192
 1  6.90737995799580 -3.86552085158516  0.41613093479348
 1  6.57301614111411 -2.63902611861186 -1.09936962316232
 1  7.26959776137614 -0.89539609390939  0.66636538983898
 1  7.77292620282028 -2.12276052455246  1.84114158655866
 1  8.76845274487449 -1.85044308500850 -1.11780999969997
 1  8.90116228162816 -4.10240910081008 -0.12313478367837
 1  10.29303233263326 -3.56507986268627 -0.39329691159116
 1  10.06915366296630 -3.70664639323932  1.25478644164416
 1  9.42397345824582  0.14671308170817  0.34512368676868
 1  10.18435739433943 -1.10830915021502  1.52132306960696
 1  11.79619155025503 -1.76466378807881 -0.38184749254926
 1  10.88704464466447 -0.77955959145915 -1.42439328302830
 1  11.45434545264526  1.41539461126113 -0.23280049044904
 1  12.17634839353935  0.40707199049905  1.26818599369937
 1  13.50603134543454  0.42988773157316 -1.65399160396040
 1  14.24405463266327 -0.93007602490249  0.59544464196420
 1  13.95131551805181 -1.66188936783678 -0.82223847794779
 1  15.53826368286829 -0.67787111481148 -0.64049645264526
 1  13.48578782438244  2.75686398559856 -0.39286916421642
 1  14.39425703790379  1.72472888738874  0.90983981128113
 1  16.31299002610261  1.34028949044904 -1.02323013801380
 1  15.38122291779178  2.21912016341634 -2.09362289318932
 1  15.28771023312331  4.42702591029103 -0.97028830883088
 1  16.06709634353435  3.71771773117312  0.28417087588759
 1  17.98246806360636  3.04037754625463 -1.19479386728673
 1  16.41585872267227  4.75230250915091 -3.26394067296730
 1  18.04493688358836  4.16073246644664 -3.65199263286329
 1  16.85942062736273  2.97647255845585 -3.38182873607361
 1  17.95832370637063  5.29991064406441  0.10864002970297
 1  18.81250886168617  5.46502272877288 -1.29926206730673
 1  17.22794536433643  6.05243965406541 -1.30740909300930
 1 -5.08934681928193 -8.19661076047605 -0.06824114011401
 1 -6.26237672897290 -6.83146252765277  0.49117896119612
 1 -4.60952316971697 -7.05117499369937  1.31625449384938
 8 -7.76925982128213  6.86680671207121 -0.43300672907291
 1 -8.98424180798080  6.20724814051405 -1.93349181668167

