%nproc=3
%Mem=2GB
# td=(NStates=1) iop(3/107=0140000000,3/108=0140000000) iop(3/107=0140000000,3/108=0140000000) CAM-B3LYP/6-31G(d,p) 

TD

0 1
12 -5.65176090729073  1.30308033573357  0.19414208300830
 6 -4.99574969676968 -2.11999596429643 -0.29545261036104
 6 -3.26171763166317  1.14557709920992  2.69595103330333
 6 -6.13234965726573  4.58626664976498  0.59991235243524
 6 -7.93666458445845  1.22028071047105 -2.45591968586859
 7 -4.31888897339734 -0.17244316741674  0.90561072807281
 6 -4.18998421882188 -1.54117529892989  0.61689540804080
 6 -3.30055145684568 -2.34679587818782  1.44408999759976
 6 -2.96492064746475 -1.33921459115912  2.58151493809381
 6 -3.60778757875788 -0.08979813241324  2.03279393799380
 6 -3.45750785878588 -1.73076976957696  4.05163302270227
 6 -1.99835467876788 -2.59727372057206  0.62049623572357
 6 -1.00621838473847 -3.51521660956096  1.50524440134013
 6  0.32953882128213 -3.80768564066407  0.73189135023502
 8  0.40633448734874 -3.52227191599160 -0.36761677707771
 8  1.08327000920092 -4.73415856065607  1.47787377587759
 7 -4.89191774277428  2.66591682838284  1.43607029362936
 6 -4.00328441564156  2.39795781178118  2.47276250205020
 6 -3.79415995319532  3.56796687918792  3.16699564396440
 6 -4.55412116781678  4.61291975747575  2.63889977417742
 6 -5.24878424082408  4.00706538303830  1.57329248114811
 6 -2.81413003790379  3.86163324702470  4.34947881838184
 6 -4.70931363136314  6.01612164636464  3.05609104590459
 8 -3.93533602090209  6.58289311951195  3.80909488198820
 7 -6.93075472507251  2.52877080958096 -0.61730439813981
 6 -6.92804500230023  3.95841624712471 -0.39252745584558
 6 -7.89383452365237  4.57329838663866 -1.20300310941094
 6 -8.48317134993499  3.63671280138014 -2.14173872627263
 6 -7.75164897639764  2.47673584768477 -1.79408317811781
 6 -8.32574485318532  5.94579594929493 -1.14454558915892
 6 -9.47641411981198  3.78876981528153 -3.10227277587759
 6 -8.86738571927193  4.10709207230723 -4.57102034873487
 7 -6.31938770607061 -0.07712289248925 -1.13685470587059
 6 -7.34947855455546 -0.02316322192219 -2.07857377997800
 6 -7.64430754735474 -1.35578073077308 -2.65851887648765
 6 -6.60960644434444 -2.16579035233523 -2.02550176007601
 6 -5.91990991449145 -1.35396942644264 -1.10827869256926
 6 -8.50615599029903 -1.74888467706771 -3.80767168656866
 6 -6.20605423252325 -3.51040014601460 -2.03782917681768
 8 -6.43193643424342 -4.55705067516752 -2.65480572627263
 6 -5.03065331883188 -3.52666443314331 -0.90540716151615
 6 -5.42043917151715 -4.68638383998400  0.08158530953095
 8 -5.89047322992299 -4.47800373377338  1.16276339663966
 8 -5.01498146134613 -5.85415930003000 -0.40286445784578
 6 -5.36180953015302 -6.98777236833683  0.44469200400040
 6  2.37437411901190 -5.15700196039604  0.77787576887689
 6  3.39718302840284 -4.10004150345034  1.20957224302430
 6  4.00299940364036 -3.39287910881088  0.33868624362436
 6  3.70396529382938 -3.37778096649665 -1.19208687748775
 6  5.17259146514651 -2.55952022022202  0.70075192609261
 6  6.56115171987199 -2.85693064606461  0.01121144704470
 6  7.61085021172117 -1.80404205000500  0.48015184978498
 6  9.06296490499050 -2.03886986898690 -0.15634234743474
 6  9.62803988408841 -3.45424532703270  0.21597472247225
 6  9.94329976557656 -0.90365098599860  0.41979994339434
 6  11.38384154145414 -0.69630242534253 -0.39588489908991
 6  12.16501412201220  0.46887607810781  0.01843263146315
 6  13.59122851695169  0.50948063496350 -0.76028578577858
 6  14.37021519451945 -0.79404013401340 -0.53018970417042
 6  14.34099403760376  1.78065283748375 -0.28033567596760
 6  15.53464274517452  2.15547748304831 -1.06446355405541
 6  16.04853447314731  3.49428193819382 -0.60365145814581
 6  17.40322471717172  3.93732264776478 -1.29779082688269
 6  17.22770175227523  4.19494505720572 -2.86745906590659
 6  17.82739615881588  5.19421754775478 -0.56763772077208
 1 -2.71491699759976  1.13602046564657  3.40887849904990
 1 -6.41161204410441  5.53021922412241  0.83674343704371
 1 -8.51408660776078  1.23583784528453 -3.20095547644764
 1 -3.62630969616962 -3.26081919861986  1.93044878697870
 1 -1.90084117011701 -1.46501410961096  2.61799396539654
 1 -3.38249757495750 -3.01628820972097  4.28104805070507
 1 -3.08087468756876 -1.13627574527453  4.79435557145715
 1 -4.55088676447645 -1.57972589058906  3.91692491509151
 1 -2.10205737133713 -3.25938898389839 -0.30308804340434
 1 -1.45648634833483 -1.77666629402940  0.03516435773577
 1 -0.85197958805881 -3.09130910321032  2.61005554665467
 1 -1.52141161976198 -4.42103894019402  1.76646568326833
 1 -1.61503015511551  3.63784847154715  4.15185756685668
 1 -2.81349900390039  4.92045168426843  4.78112377527753
 1 -3.22889282178218  3.51049424352435  5.15621259805981
 1 -5.68529238853885  6.54588257075708  2.64419653545355
 1 -10.08002198469847  2.98786593849385 -3.33854500910091
 1 -10.11368885178518  4.64494202870287 -2.74266725932593
 1 -9.47692345324533  4.28441634163416 -5.32099841044104
 1 -8.26536050205021  4.96610855145515 -4.53915359715972
 1 -8.16442671757176  3.43307762166217 -4.85806992169217
 1 -8.16439302090209 -1.12246550425043 -4.76956692569257
 1 -8.48478810671067 -2.90395745604560 -4.14499384328433
 1 -9.35126837593759 -1.36081271587159 -3.47547183228323
 1 -4.07194897089709 -3.73581940494049 -1.23372830293029
 1  2.50146809060906 -6.09100639373937  1.22341072897290
 1  2.09486281288129 -5.17521604800480 -0.26748218331833
 1  3.64230021242124 -4.24079420172017  2.15860422452245
 1  2.61779923182318 -3.69756131103110 -1.31392404250425
 1  3.93050038803880 -2.42521722232223 -1.59455767326733
 1  4.24669717711771 -4.13758561486149 -1.90012146944694
 1  5.03708757775778 -1.49403494809481  0.59818020912091
 1  5.37199955835584 -2.44105842304230  1.78128201450145
 1  7.06945616561656 -3.79539383888389  0.50041936363636
 1  6.40025886538654 -2.85304752075208 -1.10327001320132
 1  7.25165596719672 -0.70443699799980  0.16184493779378
 1  7.69069797999800 -1.74483273177318  1.39176664906491
 1  8.90883678327833 -1.90794883558356 -1.35658387708771
 1  8.90286245164516 -4.25686454635464  0.03711124092409
 1  10.59313234263426 -3.50285364006401 -0.18340592249225
 1  9.81020776837684 -3.46461218981898  1.25184614761476
 1  9.36966802770277  0.03232164256426  0.26256543094309
 1  10.21482044064406 -0.90046836613661  1.40251118841884
 1  11.75490742184219 -1.77816513821382 -0.49804911271127
 1  11.12067800800080 -0.45980761626163 -1.47537838153815
 1  11.49514953305330  1.35432850465046 -0.26908411881188
 1  12.53296405510551  0.33634491779178  1.12423159825983
 1  13.30817155945594  0.51837658045805 -1.81333753855386
 1  14.35226545374537 -0.98176119341934  0.59045414291429
 1  14.14756514301430 -1.90751393029303 -0.80397665176518
 1  15.51887174367437 -0.55061838953895 -0.90483288628863
 1  13.61323056865687  2.75152345154515 -0.35255513281328
 1  14.45892350455046  1.65615202970297  0.76662548984898
 1  16.36653538063806  1.38943440494049 -1.00497831283128
 1  15.14528932443244  2.18728698009801 -2.12195572647265
 1  15.10921238333833  4.35026823452345 -0.59348062806281
 1  16.16604623852385  3.41234719411941  0.59182164096410
 1  18.00415023182318  3.07492100060006 -1.35541992989299
 1  16.56376351315132  4.79814709360936 -3.10351463036304
 1  18.07614000390039  4.39645603880388 -3.22061949554955
 1  16.74023870917092  3.40683559475948 -3.36992754595460
 1  18.05732360636063  5.02935358835884  0.43497266296630
 1  18.81889950075007  5.41437766426643 -1.18398053915392
 1  17.07246981678168  5.88094250435044 -0.88307665976598
 1 -5.14010189478948 -7.88430953035304 -0.00136445244524
 1 -6.38320881218122 -6.84527390879088  0.72663250655065
 1 -4.92159437683768 -6.98619849604960  1.39398226662666
 8 -7.89402229752975  6.89828986038604 -0.46610003840384
 1 -9.26812019581958  6.31580899659966 -1.73189165666567

