%nproc=3
%Mem=2GB
# td=(NStates=1) iop(3/107=0140000000,3/108=0140000000) iop(3/107=0140000000,3/108=0140000000) CAM-B3LYP/6-31G(d,p) 

TD

0 1
12 -5.55484121532153  1.24692472017202  0.17083975277528
 6 -4.96009613141314 -2.09836380108011 -0.37942100720072
 6 -3.40859231913191  1.14763730523052  2.74886632483248
 6 -6.34378080038004  4.56157418051805  0.69426178737874
 6 -7.99290020802080  1.22956163856386 -2.42796689058906
 7 -4.29870695519552 -0.31872779587959  1.04426459345935
 6 -4.18818403880388 -1.57030821222122  0.60085380388039
 6 -3.28268967066707 -2.34084528312831  1.49762535113511
 6 -2.91297545294529 -1.34976564626463  2.63198998559856
 6 -3.62940974097410 -0.09201835443544  2.10719137773777
 6 -3.33081518951895 -1.72702939553955  4.02016987638764
 6 -2.05575041834183 -2.76896088928893  0.66525071117112
 6 -1.04611237413741 -3.50068515641564  1.42651652855286
 6  0.14359022642264 -3.89171404350435  0.61948010911091
 8  0.44858871277128 -3.53064275307531 -0.45114512991299
 8  0.95566724892489 -4.69045419021902  1.41592758125813
 7 -4.92414096509651  2.68968920562056  1.47451413801380
 6 -3.96148023522352  2.42496051205121  2.49671489728973
 6 -3.78228876607661  3.63636371887189  3.16796574097410
 6 -4.64686044174417  4.56164462996300  2.55724160836084
 6 -5.33312267466747  3.99665434193419  1.38268342024202
 6 -2.81556018091809  3.94077116081608  4.34489836033603
 6 -4.71242394239424  6.08910894509451  2.90123556035604
 8 -4.27816030333033  6.66191102130213  3.95750972347235
 7 -6.89905155475548  2.67114504700470 -0.74318698639864
 6 -7.06181837963796  4.01001140664066 -0.30881908500850
 6 -8.06561170137014  4.65077613441344 -1.07066987608761
 6 -8.53239627242724  3.71522065216522 -2.05541009340934
 6 -7.74029784128413  2.48304647874787 -1.78893266306631
 6 -8.47755003370337  6.06715808550855 -1.13122425702570
 6 -9.53695017341734  3.86950788908891 -3.11504405300530
 6 -8.94617359805981  3.94026538963896 -4.50139338603860
 7 -6.37860362766277 -0.06138131833183 -1.12561358175818
 6 -7.34801840854085 -0.00553145874587 -2.10346626922692
 6 -7.59664278087809 -1.37542269496950 -2.70777380198020
 6 -6.64497998169817 -2.16187996129613 -2.01636084598460
 6 -5.94609253275328 -1.27814184368437 -1.16621448614862
 6 -8.39205458015802 -1.78711850045004 -3.86539745914591
 6 -6.12132575967597 -3.54636374237424 -2.14567996189619
 8 -6.43496673727373 -4.40458542864286 -2.82651289698970
 6 -5.01308156165617 -3.43141490819082 -0.95482210301030
 6 -5.17439456705671 -4.63018822042204  0.09407655865587
 8 -5.57575175777578 -4.51840777417742  1.18935605590559
 8 -4.70546050925093 -5.81838572267227 -0.41260543194319
 6 -4.79330267946795 -7.09549314041404  0.34586212101210
 6  2.31394807640764 -5.04597085728573  0.81200918221822
 6  3.38469177927793 -4.09268076737674  1.10312159795980
 6  3.99863896759676 -3.23228304920492  0.26377875287529
 6  3.62705760306031 -3.23268645704570 -1.34448211701170
 6  5.19162336833683 -2.44328859705971  0.72917476837684
 6  6.52405801050105 -2.66334128712871  0.08493881978198
 6  7.65959508620862 -1.83170481628163  0.56593042764276
 6  9.10282889138914 -2.06157213921392  0.04415770257026
 6  9.54654173427343 -3.47754765726573  0.47212033703370
 6  10.02736817241724 -0.96236685758576  0.41309927332733
 6  11.43311646894689 -0.94703749884989 -0.25366067666767
 6  12.17554517511751  0.36296548704870  0.12894368256826
 6  13.52592198629863  0.45696538343834 -0.57252700990099
 6  14.48968714171417 -0.81997272727273 -0.36965365056506
 6  14.21262120032003  1.73173794599460 -0.22497013941394
 6  15.41210049094910  1.99944187948795 -1.15911301900190
 6  16.02721234093409  3.45018752875288 -0.81698279127913
 6  17.36405079977998  3.88248716421642 -1.33778482628263
 6  17.21115009710971  4.06708227092709 -3.00093241324132
 6  17.91162458165816  5.13472159815982 -0.77384834183418
 1 -2.87487299319932  1.28446531013101  3.57305491669167
 1 -6.46414729762976  5.58485468766877  0.89305906860686
 1 -8.93396859595960  1.22117637913791 -3.14280966186619
 1 -3.87999506470647 -3.17306042274227  2.13678942104210
 1 -1.78829991599160 -1.07640524872487  2.60033219921992
 1 -2.70167949314932 -2.50813739463946  4.50458040394039
 1 -3.07513411351135 -0.73352547024703  4.67808394429443
 1 -4.44647632343234 -2.04016193419342  3.93041626422642
 1 -2.49973713931393 -3.34279732473247 -0.05289302390239
 1 -1.58200890059006 -1.64914354175417  0.37348819011901
 1 -0.85937032713271 -3.01405137743774  2.31983652475248
 1 -1.71350082868287 -4.48380521682168  1.84479351605161
 1 -1.91783043514351  3.15345003170317  3.95348772987299
 1 -2.59158681268127  5.06867650675068  4.45344100700070
 1 -3.24742467496750  3.48949214331433  5.25146212301230
 1 -5.44887874717472  6.55236321882188  2.04642675847585
 1 -10.13441742424242  2.99700685258526 -2.87457861246125
 1 -10.22542002490249  4.69109664416442 -2.94808780138014
 1 -9.64321008190819  4.08351625162516 -5.31280759135914
 1 -8.36402036803680  4.84304624522452 -4.73387306910691
 1 -8.31302157705771  3.12853716761676 -4.74220833553355
 1 -8.28409499109911 -0.90037329502950 -4.47277724672467
 1 -7.92185181308131 -2.57157421772177 -4.42999234313431
 1 -9.59327257635763 -2.01643827842784 -3.57057134223422
 1 -4.10281205720572 -3.66252207520752 -1.47961289138914
 1  2.61985992979298 -6.09570686378638  1.22475086298630
 1  2.16883020962096 -5.33289181558156 -0.36090152525253
 1  3.75662164456446 -3.92198232053205  2.01337970207021
 1  2.66679413131313 -3.40738229312931 -1.45816846694669
 1  3.86685402340234 -2.32335703630363 -1.86964518201820
 1  4.29513202060206 -3.86320817711771 -1.95786724402440
 1  5.03723759275928 -1.25370091469147  0.54288467956796
 1  5.20903326172617 -2.67722203940394  1.83723761006101
 1  6.96310553055305 -3.88444274377438  0.22780210191019
 1  6.34779361886189 -2.58844106010601 -1.06836652285229
 1  7.48631943354335 -0.73771032533253  0.38015676897690
 1  7.72143105330533 -2.13137138563856  1.60274774717472
 1  9.12563846344634 -2.04201224192419 -1.07702592129213
 1  8.89615178057806 -4.41831069096910  0.03609113891389
 1  10.52733576297630 -3.81561491619162  0.09587200530053
 1  9.61410815841584 -3.56078180678068  1.56207717071707
 1  9.48835989688969 -0.04022561216122  0.03774294869487
 1  10.26418537713771 -0.92062038133813  1.44957589488949
 1  11.83695562666267 -1.93997131883188  0.14208490069007
 1  11.33252919311931 -1.14784642014201 -1.30658150185018
 1  11.67436745484548  1.27893096489649  0.03522631223122
 1  12.46164692339234  0.18930021332133  1.25577475257526
 1  13.24850559285928  0.48489323212321 -1.67298350315032
 1  14.92636286348635 -0.63561657895790  0.60309540704070
 1  13.77936832333233 -1.88489166806681 -0.43380963506351
 1  15.27109696619662 -1.09610293799380 -1.29118152115212
 1  13.35906515211521  2.41223952315232 -0.25660553785379
 1  14.69684729692969  1.97697411191119  0.85757458475848
 1  16.11246997409741  1.27541300280028 -1.03417123212321
 1  15.13086788228823  1.77566581798180 -2.21199473037304
 1  15.20116157825782  4.10227343504350 -1.09382066206621
 1  15.97855748964896  3.38348430783078  0.34779723852385
 1  18.11545136193619  3.16405991449145 -1.26256064396440
 1  16.39194633143314  4.72316959585959 -3.20633491239124
 1  18.19038142804281  4.40225661886189 -3.47488492209221
 1  17.09781446674667  2.93771868306831 -3.51059161236124
 1  18.26935480948095  5.00362101510151  0.19358852455246
 1  18.82302991379138  5.44951117761776 -1.22783492459246
 1  17.23956652645264  6.00255466556656 -0.75431378347835
 1 -4.46083396799680 -7.88987008640864 -0.25767008300830
 1 -5.79516000730073 -7.20290967236724  1.06093593689369
 1 -4.16852907030703 -7.00052992919292  1.19185205360536
 8 -8.02060495579558  6.89289932133213 -0.35436886528653
 1 -9.30173355715572  6.40902831853185 -1.80978944644464

