%nproc=3
%Mem=2GB
# td=(NStates=1) iop(3/107=0140000000,3/108=0140000000) iop(3/107=0140000000,3/108=0140000000) CAM-B3LYP/6-31G(d,p) 

TD

0 1
12 -5.57459319051905  1.27148717641764  0.16198886768677
 6 -4.94023414521452 -2.11350531523152 -0.49370243534353
 6 -3.48771023092309  1.16323886538654  2.73341477967797
 6 -6.26789321162116  4.52795081818182  0.65670803200320
 6 -8.01890280828083  1.15704438683868 -2.29088318221822
 7 -4.31045813031303 -0.27221314441444  1.01179134613461
 6 -4.25593081348135 -1.56278746014601  0.58576229472947
 6 -3.20720212191219 -2.29580077867787  1.46033162176218
 6 -2.97482163756376 -1.30055072477248  2.53993077967797
 6 -3.63892069206921 -0.09394854745475  2.15845650425043
 6 -3.50390249824983 -1.79188588118812  3.97644550395039
 6 -1.97943278657866 -2.63616760996100  0.74580876697670
 6 -0.96297406030603 -3.37696278417842  1.48923280018002
 6  0.24244011141114 -3.76052092419242  0.65147330843084
 8  0.59374322822282 -3.39881957075708 -0.47235725112511
 8  0.98806048824882 -4.64993013781378  1.29797578607861
 7 -5.02707125812581  2.61303153985398  1.47462414901490
 6 -4.09805389258926  2.41970998699870  2.49007423322332
 6 -3.75741627882788  3.64596467896790  3.16256520092009
 6 -4.54304005970597  4.60340880638064  2.65194107830783
 6 -5.35441480388039  3.88804348084808  1.49163431533153
 6 -2.87796642154215  3.69221630533053  4.35444931543154
 6 -4.70368306830683  6.01092112631263  2.93844928172817
 8 -4.24954744204420  6.46977180738074  4.00642461496150
 7 -6.91835348494849  2.58178611111111 -0.65808847654765
 6 -7.05099729752975  3.86893729922992 -0.35646384948495
 6 -7.91732687288729  4.54882593939394 -1.24073688278828
 6 -8.41599463226323  3.62176130623062 -2.10712526492649
 6 -7.77259107060706  2.38816699079908 -1.76543031283128
 6 -8.37743002170217  5.97446881658166 -1.10622175677568
 6 -9.34306078447845  3.76861780008001 -3.22547509610961
 6 -8.67177615831583  4.05205656875688 -4.57527077377738
 7 -6.37493326062606 -0.14805998619862 -1.06403742414241
 6 -7.37182078877888 -0.05683658925893 -2.05718164076408
 6 -7.54893801040104 -1.31270642334233 -2.77662068666867
 6 -6.61845732943294 -2.16644041734173 -2.14517372727273
 6 -5.91679960346035 -1.39668369786979 -1.14243210791079
 6 -8.47660303500350 -1.61448123672367 -3.85369628902890
 6 -6.13637726482648 -3.57713681968197 -2.06899229312931
 8 -6.52687592819282 -4.51789675977598 -2.75192543824382
 6 -4.94073432693269 -3.51606337303730 -0.92481910271027
 6 -5.32833996159616 -4.65397059865987  0.14730188118812
 8 -5.81074525712571 -4.32312824622462  1.21497861816182
 8 -4.96739670287029 -5.88902278637864 -0.29280345174517
 6 -5.42828617781778 -6.91847543864386  0.62840037483748
 6  2.24033071467147 -5.09464572477248  0.79673765506551
 6  3.38436174627463 -4.12029352865286  1.01284257005701
 6  4.10290939463946 -3.36699652055206  0.17816019101910
 6  3.76225112241224 -3.09764295269527 -1.34070173897390
 6  5.17973217921792 -2.53644791299130  0.75764761566157
 6  6.51780738543854 -2.67695264826483 -0.06828650275028
 6  7.62657178387839 -1.74034568036804  0.56135997059706
 6  9.09180778927893 -2.00555653765377 -0.03151986518652
 6  9.55288236833683 -3.49016891939194  0.17588071307131
 6  10.02555799139914 -0.93367398829883  0.46150411381138
 6  11.30391354865487 -0.79574236933693 -0.27760307090709
 6  12.11907952855286  0.38632782328233  0.21767255545555
 6  13.51284067816782  0.63014270117012 -0.48167792499250
 6  14.40768894189419 -0.59693042304230 -0.26346303150315
 6  14.17563750195020  1.91634640684068 -0.19203684608461
 6  15.37187646854685  2.24081601690169 -1.07759486718672
 6  16.10415003470347  3.50203271327133 -0.74279537253725
 6  17.50663505820582  3.82027094259426 -1.46028707650765
 6  17.24862384448445  3.79823538623862 -2.96751907190719
 6  18.24874829402940  4.95026315231523 -0.92393335033503
 1 -2.73810931683168  1.08743560716072  3.69810742194219
 1 -6.76847773067307  5.54983118531853  0.99262902560256
 1 -8.69951515061506  1.22058632013201 -3.06010139103910
 1 -3.50245731093109 -3.30545366206621  1.74432017411741
 1 -1.82466355235524 -1.04404201240124  2.72003416941694
 1 -3.03014233943394 -2.64851143204320  4.51366131203120
 1 -3.25872247234723 -0.80760287798780  4.50567670357036
 1 -4.68017969376938 -2.01673959195920  4.01129435203520
 1 -2.12124929052905 -3.05084812981298 -0.21043877847785
 1 -1.41768246794679 -1.71903053045305  0.40685152645265
 1 -0.57682207230723 -2.83308328062806  2.20258479957996
 1 -1.38813829242924 -4.40360719701970  1.68094713141314
 1 -1.88688734083408  3.27048173487349  4.26936931803180
 1 -2.72368002200220  4.62843248234823  4.95321098399840
 1 -3.20568050055005  3.03369656375638  5.29062603940394
 1 -5.25025888518852  6.92974095659566  2.27428954475447
 1 -9.92345632813281  2.82565971787179 -3.34205536013601
 1 -10.02339982288229  4.57024455895590 -3.05089808240824
 1 -9.20022578347835  3.90720862086209 -5.56864317491749
 1 -8.00436440244024  4.97890983158316 -4.68314799659966
 1 -7.79761003590359  3.33129744364437 -4.69539365406541
 1 -8.08130471207121 -1.23219647734773 -4.87684765376538
 1 -8.72305193309331 -2.86823388368837 -3.84767411131113
 1 -9.49723297239724 -1.10014664926493 -3.82039632473247
 1 -3.86661843784379 -3.59258508150815 -1.23981891199120
 1  2.59253719751975 -6.08999629272927  1.30977936583658
 1  2.30260358695870 -5.30780930733073 -0.23712914801480
 1  3.82454843724372 -4.12109223152315  2.03765212931293
 1  2.87189464136414 -3.59875143004300 -1.68456110621062
 1  3.85524286228623 -2.05011971257126 -1.55629384688469
 1  4.75293780118012 -3.43729558585859 -2.05481693899390
 1  4.78534240324032 -1.60143568816882  0.59697008810881
 1  5.10978333673367 -2.59615393259326  1.75541942824282
 1  6.79849906990699 -3.74080838033803 -0.02058273657366
 1  6.32881172067207 -2.62746496249625 -1.09858954515452
 1  7.42356315791579 -0.70183673797380  0.15984473777378
 1  7.63668257845785 -1.83739198769877  1.73543101550155
 1  8.91743764336434 -1.85595363606361 -1.05355357405741
 1  8.75976814221422 -4.29724858475848 -0.12997546774677
 1  10.54190722012201 -3.53314666936694 -0.40571815371537
 1  9.74935168276828 -3.61297702630263  1.18512947594759
 1  9.47092815371537  0.01986039643964  0.42011118551855
 1  10.43083204180418 -1.19668798809881  1.54143508080808
 1  11.85595752685269 -1.59866718841884 -0.08166747454745
 1  11.34336027622762 -0.53072470797080 -1.54115495919592
 1  11.47416743484348  1.22389546134613  0.13005579517952
 1  12.47174793349335  0.19307059035904  1.33168234333433
 1  13.16743748604861  0.77101184398440 -1.51802800760076
 1  14.64787501470147 -0.78029104640464  0.79285438293829
 1  13.99089947644765 -1.57052023092309 -0.71814806890689
 1  15.28601845834583 -0.22126545424542 -0.64685708870887
 1  13.20985023062306  2.53815211441144 -0.57645752305231
 1  14.38674628682868  2.13240965546555  0.99096792409241
 1  16.18616734383438  1.31337679917992 -0.96192400740074
 1  15.07370216571657  2.21926017741774 -2.24192772367237
 1  15.33364482658266  4.34964817251725 -1.04794607460746
 1  16.41535116901690  3.49684564396440  0.27526998579858
 1  18.07116693349335  3.02499600810081 -1.41217560546055
 1  16.73164030083008  4.76958423732373 -3.39350362926293
 1  18.27125951585159  3.77760415361536 -3.40121755535554
 1  16.94234892019202  2.79252416361636 -3.35958651185118
 1  18.52601047504750  4.85199585258526  0.08857802350235
 1  19.17590520132013  5.07051327782778 -1.60847298839884
 1  17.68664123392339  5.92519692979298 -1.11473982608261
 1 -4.93202108670867 -7.98872997239724  0.24565024902490
 1 -6.32026251755175 -6.83760314171417  0.67520736403640
 1 -5.01434365176518 -6.83464334053405  1.65512838123812
 8 -7.92864575987599  6.87789782118212 -0.32011543994399
 1 -9.26602998679868  6.23387080278028 -1.66809527702770

