%nproc=3
%Mem=2GB
# td=(NStates=1) iop(3/107=0140000000,3/108=0140000000) iop(3/107=0140000000,3/108=0140000000) CAM-B3LYP/6-31G(d,p) 

TD

0 1
12 -5.66890262146215  1.24833486118612  0.25838850765077
 6 -4.91927204900490 -2.08687265196520 -0.47168023312331
 6 -3.30729218911891  1.27255979747975  2.79285072327233
 6 -6.28157457975798  4.57815583868387  0.60080244144414
 6 -7.98179909790979  1.15686436883688 -2.34671876577658
 7 -4.33549063356336 -0.24199012211221  1.07577774477448
 6 -4.15173039343934 -1.56542772417242  0.64408812731273
 6 -3.21994339603960 -2.22098329692969  1.37660324892489
 6 -2.89225338073807 -1.23200387008701  2.60011679827983
 6 -3.57223402340234 -0.02792194479448  2.16477713631363
 6 -3.38511061906191 -1.72126881948195  4.02530038943894
 6 -1.98613345664566 -2.68426241944194  0.55150933703370
 6 -0.92045980888089 -3.39035412331233  1.37143102000200
 6  0.30521638903890 -3.80014488658866  0.56403456455646
 8  0.61342519641964 -3.28514820362036 -0.54363437883788
 8  0.97911959415942 -4.73437858265827  1.13209919841984
 7 -4.97603615461546  2.63809404610461  1.48578526512651
 6 -3.91237532473247  2.46118413441344  2.37467269306931
 6 -3.68130866806681  3.65372545504550  3.10411935633563
 6 -4.56524227992799  4.63075154065407  2.58143402760276
 6 -5.26554591699170  3.99513418991899  1.52225737763776
 6 -2.75567419231923  3.94639172287229  4.31353522402240
 6 -4.60440314031403  6.01630166436644  2.98455389218922
 8 -3.90589307660766  6.53668849904991  3.79995396789679
 7 -6.82705435503550  2.57735566806681 -0.69021168886889
 6 -6.97023922172217  3.96902730823082 -0.34188239133913
 6 -8.05330047024703  4.55044610141014 -1.16042885198520
 6 -8.51100413321332  3.53437256735674 -1.97819237163716
 6 -7.77219103060306  2.32653082718272 -1.67744151395140
 6 -8.43606588528853  5.92012338203820 -1.09872100670067
 6 -9.59407588598860  3.60498143644364 -3.17323987258726
 6 -8.78620760146015  3.67844920802080 -4.52861610831083
 7 -6.38790455775577 -0.09862504270427 -1.10227124752475
 6 -7.38944255095510 -0.03180408600860 -2.15262118471847
 6 -7.58248136473647 -1.35747089978998 -2.71110413501350
 6 -6.71267675137514 -2.21799557285729 -2.04603381328133
 6 -5.94464238773877 -1.35634966446645 -1.11312917761776
 6 -8.68434380908091 -1.60059984858486 -3.76903782318232
 6 -6.17869149624963 -3.55785489148915 -2.00337573147315
 8 -6.50841408200820 -4.60612558265827 -2.51033127882788
 6 -5.05137539103910 -3.51875364206421 -0.96718333913391
 6 -5.30076720432043 -4.57389259085909  0.09254640564056
 8 -5.72050623322332 -4.39984591799180  1.18888600890089
 8 -4.87145710891089 -5.75610949504950 -0.38517268866887
 6 -5.18901225042504 -6.89658324942494  0.56011354615462
 6  2.24230091169117 -5.12974923512351  0.54472245354535
 6  3.34680799089909 -4.15733723302330  1.02539382518252
 6  3.95464456815682 -3.26340616151615  0.15439781478148
 6  3.58762365966597 -3.08417160556056 -1.32218988778878
 6  5.09620382638264 -2.37499176737674  0.70089194009401
 6  6.51559716441644 -2.66595154815482 -0.02819249334934
 6  7.65158428512851 -1.79135078087809  0.55783961856186
 6  9.00031864036404 -1.99285526752675 -0.14357107030703
 6  9.59440652075207 -3.42805270777078  0.19848297329733
 6  9.96406184178418 -0.82909353025303  0.36608457185719
 6  11.30550370767077 -0.84825762086209 -0.27385269586959
 6  12.17415503610361  0.39168835933593  0.10097088528853
 6  13.54416381048105  0.43523321022102 -0.54986474367437
 6  14.48652682568257 -0.81544227422742 -0.10951763696370
 6  14.20500043824382  1.78808358055806 -0.16413405580558
 6  15.48598787968797  2.05381731703170 -0.97780488818882
 6  16.00797041674167  3.41124363436344 -0.56969806280628
 6  17.38075246994699  3.77379629512951 -1.30830187798780
 6  17.28163714581458  4.04245980868087 -2.84798711871187
 6  18.02404582378238  5.03943206920692 -0.74674563156316
 1 -2.66060156605661  1.35877274087409  3.63606121732173
 1 -6.47976885978598  5.62514871707171  0.94250401310131
 1 -8.59917511661166  1.04907916941694 -3.21142652355235
 1 -3.47424448964897 -3.18104122082208  1.78638438053805
 1 -1.71190227622762 -1.07731533973397  2.56893905990599
 1 -2.99442876807681 -2.62190877177718  4.26958690459046
 1 -3.08598519861986 -0.97585970367037  4.57431356725673
 1 -4.42759443524352 -1.72774069206921  4.08689191179118
 1 -2.44400156575658 -3.26487953295329 -0.27036477107711
 1 -1.50589128882888 -1.97797642504250 -0.01101025972597
 1 -0.57390178027803 -2.69048902120212  2.13669821092109
 1 -1.37229670827083 -4.31163800010001  1.89380841754175
 1 -1.64629328142814  4.00767545424542  4.04465684678468
 1 -2.97820547454745  4.94504414351435  4.78671433433343
 1 -2.82698263076308  3.12117531163116  5.00135711251125
 1 -5.58182204150415  6.58744672717272  2.61716383218322
 1 -10.26022000450045  2.77719487138714 -3.02708386298630
 1 -10.02413989688969  4.52360989548955 -2.81226421902190
 1 -9.46767252815281  3.92375027502750 -5.25635194579458
 1 -8.17546151215121  4.62903484408441 -4.52886256805681
 1 -8.20010028492849  2.77222153605361 -4.74993910861086
 1 -8.67608419001900 -0.96127938563856 -4.66212618161816
 1 -8.55251487938794 -2.55514257455746 -4.17190653455346
 1 -9.62977622672267 -1.38048468306831 -3.24798908400840
 1 -4.05884766076608 -3.85939176217622 -1.35526045614561
 1  2.47491543534353 -6.03304059715972  0.82272065996600
 1  2.46236956355636 -5.14366289268927 -0.56511194629463
 1  3.65107108950895 -4.26781690399040  2.06630499459946
 1  2.68132558445845 -3.55137669256926 -1.32363501360136
 1  3.50010734873487 -1.98230293089309 -1.42029024652465
 1  4.33363587098710 -3.58602045834583 -2.01949340664066
 1  5.02693656265627 -1.33272881748175  0.58620901200120
 1  5.39914227262726 -2.58418273547355  1.80849473577358
 1  6.70302952295229 -3.78564286378638  0.12620194189419
 1  6.37230607010701 -2.45697791379138 -1.16208589478948
 1  7.21784258585859 -0.75382193649365  0.72988174147415
 1  7.67772668286829 -2.03747199569957  1.55825329772977
 1  8.94459035863586 -1.99617765846585 -1.29491771047105
 1  8.73992615801580 -4.10767962786279 -0.29654212441244
 1  10.53224625402540 -3.59520287498750 -0.26765434733473
 1  9.59502625022502 -3.42613834243424  1.33268423142314
 1  9.49303036393639  0.21903031343134  0.05309448384838
 1  10.03405236383638 -1.11046936623662  1.39816075337534
 1  11.86656858795880 -1.88193551525152  0.04930562276228
 1  11.17771371157116 -0.75134677017702 -1.48371921562156
 1  11.62303232133213  1.24325739753975  0.00333312291229
 1  12.45850660936094  0.17490877417742  1.15449462456246
 1  13.49629037133713  0.27861260406041 -1.78267447224722
 1  14.45553578077808 -0.89615263256326  0.98787388488849
 1  13.87893828032803 -1.70517369626963 -0.53337959205921
 1  15.45487534403440 -0.61577490519052 -0.69677208020802
 1  13.43604284988499  2.55936423562356 -0.44070394769477
 1  14.27559517171717  1.77673408790879  1.07084591189119
 1  16.12070079717972  1.34378984048405 -0.59226704170417
 1  15.25410020552055  1.91282953435344 -2.04394792569257
 1  15.32085354745474  4.10643385108511 -1.01594287428743
 1  16.12877251115111  3.50719667906791  0.53311577037704
 1  18.17825764256426  2.99538304680468 -1.10990537843784
 1  16.86522365916592  5.01794907380738 -3.07277155605561
 1  18.49042143204320  4.15508190139014 -3.04628206180618
 1  16.96495118041804  3.26437134833483 -3.34837539073907
 1  18.11289916391639  5.12029268226823  0.27778694439444
 1  18.78648625942594  5.41468769526953 -1.28868100920092
 1  17.27409997979798  5.82756716681668 -0.68208656075608
 1 -4.97187507210721 -7.85989708910891 -0.04626894289429
 1 -6.31606209750975 -6.67570695209521  0.90399024232423
 1 -4.70810302770277 -6.62763263946395  1.52108497689769
 8 -8.00493338863886  6.74263429482948 -0.38761218961896
 1 -9.36398978277828  6.23567098279828 -1.84808327582758

