%nproc=3
%Mem=2GB
# td=(NStates=1) iop(3/107=0140000000,3/108=0140000000) iop(3/107=0140000000,3/108=0140000000) CAM-B3LYP/6-31G(d,p) 

TD

0 1
12 -5.65868159935994  1.17669769746975  0.26121879067907
 6 -5.08039816161616 -2.20533449814981 -0.18623168826883
 6 -3.41059251915192  1.19946248774877  2.75444688288829
 6 -6.31920834313431  4.57196521962196  0.65865822702270
 6 -8.07606852485248  1.18349703210321 -2.31478557245725
 7 -4.57070415491549 -0.26821274437444  1.19762992999300
 6 -4.35824104450445 -1.57573875527553  0.74302802130213
 6 -3.31790319201920 -2.33042424102410  1.56135172377238
 6 -2.90625478087809 -1.25541621132113  2.67609439603960
 6 -3.63939073907391 -0.02111126372637  2.14377503610361
 6 -3.46882899089909 -1.63638033063306  4.05385324472447
 6 -2.09223406670667 -2.66925091829183  0.58800298639864
 6 -1.02763052595260 -3.61731681958196  1.27556143304330
 6  0.19471533893389 -3.95261013311331  0.42439060016002
 8  0.39453330723072 -3.58039772857286 -0.72672268766877
 8  1.04298598079808 -4.71186633143314  1.19112510101010
 7 -4.86441499249925  2.64420465716572  1.45480216681668
 6 -4.06691077827783  2.47570558655866  2.51382660846085
 6 -3.76324686188619  3.78529861236124  3.19048799319932
 6 -4.52713846954695  4.60386885238524  2.53943982818282
 6 -5.33923328572857  3.92984766126613  1.46230138203820
 6 -2.73667229212921  3.88787587128713  4.31535540604060
 6 -4.53962666266627  6.05572560676068  2.84257969476948
 8 -3.97012950025002  6.75426025622562  3.67630160266027
 7 -6.86924857445744  2.61356928942894 -0.69074174187419
 6 -6.99401159895990  3.95899630513051 -0.31519972307231
 6 -7.93408854905491  4.60802185898590 -1.23226603570357
 6 -8.42339537233723  3.71711084118412 -2.12976752915292
 6 -7.76150996249625  2.44792296639664 -1.69808357815782
 6 -8.25680795949595  5.98359972967297 -1.25105624022402
 6 -9.44457093549355  3.86073701200120 -3.20084263286329
 6 -8.85351433213321  3.83165452855286 -4.66603985068507
 7 -6.45786155345534 -0.13828900910091 -0.94517553795380
 6 -7.46027963466347 -0.01904280988099 -1.93178910151015
 6 -7.55791890849085 -1.39051420412041 -2.57567059165917
 6 -6.75104058775878 -2.24015778907891 -1.96457566746675
 6 -5.93484140764076 -1.41953598309831 -1.02601046574657
 6 -8.56818219291929 -1.64814460306031 -3.72648356775678
 6 -6.25286891399140 -3.51701080708071 -1.92969836373637
 8 -6.56813005360536 -4.50459542964296 -2.53155340104010
 6 -5.00497075057506 -3.52290405710571 -0.88749537033703
 6 -5.29653678127813 -4.62204740634063  0.14790194119412
 8 -5.82353653625363 -4.51189712311231  1.25849296959696
 8 -4.83747371057106 -5.79463334743474 -0.35136930833083
 6 -5.25742909210921 -6.91753534463446  0.53440097489749
 6  2.34610129172917 -5.08561482168217  0.43781176247625
 6  3.49357266736674 -4.23208470777078  0.89838112391239
 6  4.04148325202520 -3.35583540444044  0.05749812481248
 6  3.77916281358136 -3.19960314871487 -1.38007567636764
 6  5.25698990499050 -2.48658292649265  0.55904775567557
 6  6.60847645234523 -2.75104005700570  0.01553187908791
 6  7.71248037473747 -1.77690933673367  0.59549338393839
 6  9.12482109060906 -1.94298028002800 -0.10322703590359
 6  9.52112919301930 -3.45139504200420  0.06638976397640
 6  10.08092352795280 -0.91996261716172  0.52721068446845
 6  11.40509366666667 -0.95986878197820 -0.26587189778978
 6  12.36299391999200  0.22167135763576  0.33790457865787
 6  13.65626502060206  0.50798048494849 -0.53849360656066
 6  14.56545471847185 -0.73780451045105 -0.50622730793079
 6  14.33151308950895  1.79498427062706 -0.09053669606961
 6  15.52747202810281  2.15374731003100 -1.06095320302030
 6  15.97474709440944  3.51467397739774 -0.63957505050505
 6  17.26010040474047  3.95645456095610 -1.32699374717472
 6  17.16417539963997  4.23626918961896 -2.76250857085709
 6  17.83148656785679  5.20553867986799 -0.56865782278228
 1 -2.74423992989299  1.23449031263126  3.70521813301330
 1 -6.42905378827883  5.69116531873187  0.80541030373037
 1 -8.66603180228023  1.18128238973897 -3.17371275217522
 1 -3.82180924612461 -3.24931804850485  1.95464120622062
 1 -1.81513259925993 -1.24226183438344  2.66699886588659
 1 -3.18875820102010 -2.71820840174017  4.26080602650265
 1 -3.19841644174417 -0.93963608130813  4.94938107400740
 1 -4.58812048784879 -1.84505242324232  3.85920914351435
 1 -2.47408457405741 -3.03086613161316 -0.43196093069307
 1 -1.52747344704470 -1.74402302970297  0.26253709500950
 1 -0.77821221132113 -3.28504847714771  2.26540108120812
 1 -1.38940841944194 -4.78609544584458  1.41236027272727
 1 -1.83281193329333  3.25439012571257  4.03385576667667
 1 -2.57410506450645  4.84528416751675  4.43542920582058
 1 -3.01146107860786  3.39214240834083  5.13071004780478
 1 -5.32608646794679  6.70209819231923  2.23541565736574
 1 -10.04127811031103  3.02790994289429 -3.20778193279328
 1 -10.10905838873887  4.78269580408041 -3.09677266986699
 1 -9.84416017691769  3.94608250825082 -5.29881619221922
 1 -8.13004697069707  4.48221016161616 -4.68844852665266
 1 -8.37275755065507  2.96475078897890 -5.03196731143114
 1 -8.22162874447445 -1.09219247694770 -4.67166713571357
 1 -8.64709433733373 -2.63653071337134 -3.83628297219722
 1 -9.58807205630563 -1.59406604120412 -3.48525281038104
 1 -4.20997277327733 -3.72860868386839 -1.57251218131813
 1  2.47138508230823 -6.15809310241024  0.74872326022602
 1  1.90568389498950 -4.79858838523852 -0.55399083418342
 1  3.65120110251025 -4.48329845214521  1.97351571567157
 1  2.70545799769977 -3.37000855575558 -1.78913156325633
 1  4.18232557055706 -2.18671337193719 -1.86337455495550
 1  4.37773028042804 -4.01883373967397 -1.92902435973597
 1  4.93067693669367 -1.32000754535454  0.27803819491949
 1  5.24134649304931 -2.48184250145014  1.64872875917592
 1  7.04431365136514 -3.68161246074607  0.30589991169117
 1  6.69315815531553 -2.47880009600960 -0.91901158735874
 1  7.26741754335434 -0.82522907720772  0.54876362966297
 1  7.84702361256126 -1.98448669716972  1.72395986838684
 1  9.14051995159516 -1.68889693039304 -1.10592881158116
 1  8.69678184358436 -4.21626048594859 -0.16298876907691
 1  10.33338636803680 -3.78809216391639 -0.50813839573957
 1  9.80400714831483 -3.79345507410741  1.17622858585859
 1  9.85965702660266  0.10163857425743  0.37846702110211
 1  10.31512047064706 -1.11722004130413  1.53863480078008
 1  11.87646957805781 -1.95430275197520  0.15140583278328
 1  11.22509845004500 -0.95961759725973 -1.39315015871587
 1  11.79557957605761  1.06031910371037  0.26617940754075
 1  12.45496625532553 -0.19182789948995  1.41379055415542
 1  13.33694443674367  0.51075581838184 -1.57427363216322
 1  14.84967519471947 -0.94259727702770  0.59186428392839
 1  14.08992937943795 -1.52543572247225 -1.15848210231023
 1  15.64329418591859 -0.51869519721972 -0.99412181518152
 1  13.46487573317332  2.59101740094009  0.02862298499850
 1  14.72693030523052  1.61736815131513  0.84497332463246
 1  16.21885061216122  1.32806826832683 -0.85368318331833
 1  15.42107690319032  1.99186743814382 -2.03999753065307
 1  15.27986944904490  4.26236944464446 -0.95213649364937
 1  16.31533116701670  3.37949390879088  0.51228368716872
 1  17.89423924072407  3.10161366986699 -1.07878226612661
 1  16.54392152895289  5.26427370627063 -2.83945822472247
 1  18.28248063796380  4.56225261846185 -3.11135856945695
 1  16.68415310061006  3.47937284848485 -3.42373292649265
 1  18.18535640964096  4.98861951495149  0.49601876757676
 1  18.88916652745275  5.76205243174317 -1.16313845494549
 1  16.95135770557056  5.97041145124512 -0.66563491559156
 1 -5.19278716331633 -7.83823492289229 -0.17539185518552
 1 -6.40081057235724 -6.64728410981098  0.84015385868587
 1 -4.77641985938594 -7.17795767196720  1.46663953235324
 8 -7.80084297959796  6.81818184958496 -0.53707713611361
 1 -8.75596898069807  6.43864127982798 -2.15063353085309

