%nproc=3
%Mem=2GB
# td=(NStates=1) iop(3/107=0140000000,3/108=0140000000) iop(3/107=0140000000,3/108=0140000000) CAM-B3LYP/6-31G(d,p) 

TD

0 1
12 -5.57228295949595  1.23824385208521  0.20844351315132
 6 -5.12941306310631 -2.12770673537354 -0.31862492759276
 6 -3.30666212611261  1.21159370087009  2.70353179137914
 6 -6.13036945924592  4.59376739983998  0.63014537573757
 6 -7.90967188518852  1.19847853025303 -2.44991908580858
 7 -4.44954203870387 -0.30463638673867  1.10066023302330
 6 -4.31970719111911 -1.59083026442644  0.68402212071207
 6 -3.24869627132713 -2.36602780138014  1.46724231283128
 6 -2.93504766016602 -1.31115178487849  2.65655244184418
 6 -3.58892569256926 -0.09158831143114  2.08733939253925
 6 -3.58597070507051 -1.65027171977198  3.99486734613461
 6 -2.06567141044104 -2.81757575077508  0.69340352645265
 6 -1.06642440534053 -3.64926001390139  1.36935081198120
 6  0.25738160556056 -3.92521739383938  0.51486964806481
 8  0.57873172707271 -3.52630231903190 -0.56052606800680
 8  1.05047672987299 -4.76925207000700  1.20070605910591
 7 -5.04282283328333  2.59543978067807  1.58679536613661
 6 -4.01763585078508  2.40039805580558  2.59328455425543
 6 -3.71443198039804  3.63882396489649  3.13297224162416
 6 -4.55378113381338  4.57882634813481  2.61208709290929
 6 -5.31412077447745  3.89508418491849  1.53344849674967
 6 -2.60948957385739  3.82682976667667  4.17789165966597
 6 -4.61687438743874  6.00315034923492  2.97123256005601
 8 -4.08732121942194  6.52224705490549  3.97232120462046
 7 -6.85532718231823  2.58320625312531 -0.69804247194719
 6 -6.89795199299930  3.93507391289129 -0.36795499859986
 6 -7.86155129532953  4.57034809160916 -1.23827663676368
 6 -8.39944297709771  3.62687181728173 -2.07354190659066
 6 -7.64138795029503  2.43582175627563 -1.84922869266927
 6 -8.28148042674268  5.92778414811481 -1.14603573817382
 6 -9.42412889128913  3.90037097539754 -3.15845839443944
 6 -8.71584056475648  4.15794715781578 -4.61015426212621
 7 -6.22209797709771 -0.08675385558556 -1.12834385478548
 6 -7.28648225492549  0.00581967636764 -2.10854677727773
 6 -7.52556567316732 -1.33918907160716 -2.67623064766477
 6 -6.67503298699870 -2.17657143044304 -2.10815002490249
 6 -5.98387631113111 -1.35763979347935 -1.15145301000100
 6 -8.49323469816982 -1.61181096969697 -3.84899581898190
 6 -6.17783141024102 -3.60151925792579 -2.00000539443944
 8 -6.57434067466747 -4.54473944404440 -2.54412465816582
 6 -5.13948420192019 -3.53979574627463 -0.86136275707571
 6 -5.39468659625963 -4.60605580718072  0.15568271927193
 8 -5.96223040564056 -4.40353628702870  1.28148526882688
 8 -5.03880384358436 -5.81821570567057 -0.26554072547255
 6 -5.38687203640364 -6.97075066616662  0.53555108990899
 6  2.36575325692569 -5.15069132933293  0.64623260456046
 6  3.43535684578458 -4.24127562686269  1.09066035183518
 6  4.02717182088209 -3.32878269916992  0.24390676567657
 6  3.85090998829883 -3.10874406280628 -1.25130279907991
 6  5.10093429942994 -2.51675594379438  0.75966781768177
 6  6.51947755245525 -2.78381333433343  0.12029235513551
 6  7.50458958565857 -1.80504215001500  0.63256709130913
 6  9.05442405090509 -1.90362634463446  0.00446373317332
 6  9.61754883498350 -3.36145604810481  0.16653977897790
 6  9.92447788338834 -0.82407302820282  0.41043900730073
 6  11.24318747604760 -0.72055485058506 -0.31816712731273
 6  12.19673729432943  0.36549574007401  0.17035782398240
 6  13.51791118521852  0.55694538143814 -0.58367812501250
 6  14.34810298329833 -0.63849457945795 -0.38710539573957
 6  14.18479841804180  1.92851762396240 -0.24920256265627
 6  15.43690297119712  2.11413334863486 -1.03304041174117
 6  16.02843246294630  3.48599110911091 -0.63087418041804
 6  17.44508890359036  3.84554346984699 -1.42565361316132
 6  17.31489047114712  4.01578714141414 -2.85534785478548
 6  17.92915633483348  5.32305043104310 -0.88862981998200
 1 -2.47585309120912  1.22443930753075  3.45733334453445
 1 -6.25831671457146  5.58909511171117  0.54335409810981
 1 -8.71862706180618  1.14508877037704 -3.16106148704870
 1 -3.78385545074507 -3.36772988968897  1.76706244834483
 1 -1.96807789378938 -1.19651725992599  2.74977714371437
 1 -3.31932125732573 -2.60621720262026  4.48390833673367
 1 -3.43308990909091 -0.77855997369737  4.73361949784978
 1 -4.48427010281028 -1.96159407740774  3.63721694429443
 1 -2.71927909350935 -3.41290433543354 -0.23998173277328
 1 -1.54802550225023 -2.01270989838984 -0.00399955865587
 1 -0.49469385948595 -3.17525749804981  2.18567310841084
 1 -1.32550202880288 -4.71071790809081  1.40937997469747
 1 -1.60695934803480  3.63419810651065  3.73659604070407
 1 -2.82427008100810  4.77977761686169  4.86429209210921
 1 -2.65563549604960  2.97840103420342  4.93101007780778
 1 -5.13412727202720  6.57041502400240  2.22505462126213
 1 -10.15257924042404  3.10278743064306 -3.22635378997900
 1 -9.94323180608061  4.63760129462946 -2.99330232283228
 1 -9.44162992389239  4.27882578257826 -5.32039835043504
 1 -7.86187015301530  4.84459640024002 -4.46409609140914
 1 -8.27137741264126  3.20276459035904 -4.76697081178118
 1 -8.37902448404841 -0.97820107780778 -4.85196516551655
 1 -8.43093272117212 -2.86294335463546 -4.20891023492349
 1 -9.49774302340234 -1.40535717031703 -3.66322060716072
 1 -4.14487626362636 -3.91754757775778 -1.46689161926193
 1  2.40483842764276 -6.27253454655466  1.13574196209621
 1  2.10305363196320 -5.36557508390839 -0.55441087618762
 1  3.71065704810481 -4.33044316661666  2.11338970307031
 1  2.82343979587959 -3.50826238113811 -1.60788343844384
 1  4.03158049604960 -2.12978767936794 -1.48197641514151
 1  4.52385489288929 -3.79164102040204 -1.81480293759376
 1  4.64797866686669 -1.46490203480348  0.61004139523952
 1  5.20670302870287 -2.93401771897190  1.76632051835184
 1  6.48000722072207 -3.84601890139014  0.38205752745275
 1  6.53879271877188 -2.56460867686769 -1.04632431863186
 1  7.24113491509151 -0.76654320862086  0.49268802210221
 1  7.61495040524052 -1.74865311381138  1.70312778517852
 1  8.90686658625863 -1.75853389408941 -1.12907112581258
 1  9.06324849024903 -4.09624848474848 -0.41022349254926
 1  10.69327235663566 -3.64616797149715 -0.29995757765777
 1  9.69147589518952 -3.20485621422142  1.38988995199520
 1  9.45361642254225  0.20412882328233  0.05408458285829
 1  10.08577753635363 -0.78198651795180  1.44530546784679
 1  11.76985891699170 -1.71082840454045 -0.47624693249325
 1  11.05943188338834 -0.41649328482848 -1.30973181688169
 1  11.67864788288829  1.37790086188619  0.01307409700970
 1  12.47055781448145  0.04824610791079  1.21190036513651
 1  13.03358410071007  0.47178192099210 -1.70397660246025
 1  14.65931615881588 -0.69070208750875  0.71416651415142
 1  13.77354774127413 -1.48363154205421 -0.72343859795980
 1  15.44663451995200 -0.48749207690769 -0.82576497949795
 1  13.48426767236724  2.71742004120412 -0.40331020832083
 1  14.41118873107311  1.90001641614161  0.81466029332933
 1  16.09444817191719  1.46373183468347 -0.78703651865187
 1  15.14439923542354  2.00595884728473 -2.04114764566457
 1  15.32376383848385  4.28462166986699 -0.70315159515952
 1  16.21666130003000  3.43806976637664  0.28488094689469
 1  18.19868968576858  3.23372688118812 -1.09886427432743
 1  16.71418855565556  4.93945122402240 -2.98976325522552
 1  18.27490988088809  4.34580097329733 -3.40747818141814
 1  16.83144783008301  3.09018392959296 -3.58537909110911
 1  18.32567044104410  5.31391204420442  0.27658682438244
 1  18.77801541234123  5.80136636313631 -1.49438157925792
 1  17.04871744154416  6.00481489158916 -0.93671202330233
 1 -5.22700058465847 -7.85088618801880  0.02918860286029
 1 -6.35736622792279 -6.95721510291029  0.77227707100710
 1 -4.87121933933393 -6.96670654685469  1.48537140554055
 8 -7.65802869816982  6.82966299769977 -0.49276270467047
 1 -9.26923030683068  6.17733514921492 -1.64019248674868

