%nproc=3
%Mem=2GB
# td=(NStates=1) iop(3/107=0140000000,3/108=0140000000) iop(3/107=0140000000,3/108=0140000000) CAM-B3LYP/6-31G(d,p) 

TD

0 1
12 -5.54851058225823  1.18081810951095  0.17838050685069
 6 -5.08678880068007 -2.22740670537054 -0.31632469756976
 6 -3.57909936983698  1.19133167466747  2.77582902110211
 6 -6.19292571487149  4.62813083618362  0.63204556575658
 6 -8.01639255725573  1.16452513491349 -2.30203429732973
 7 -4.39946703120312 -0.29186510961096  1.03061322832283
 6 -4.37740296069607 -1.63081426282628  0.73005672417242
 6 -3.23857525922592 -2.28990018861886  1.56152174077408
 6 -2.94063821922192 -1.33640431013101  2.65251203780378
 6 -3.67639443944394 -0.06111526412641  2.06556721532153
 6 -3.42993510151015 -1.69283597619762  3.98320618001800
 6 -1.95504034733473 -2.62652664586459  0.52049623572357
 6 -0.95851361426143 -3.35183027092709  1.41834571147115
 6  0.24836070347035 -3.69415428752875  0.58455661676168
 8  0.50655450935094 -3.33792348114812 -0.46215623102310
 8  1.09275095729573 -4.59971511631163  1.30761675017502
 7 -5.02446099709971  2.61326156285629  1.45899258585859
 6 -4.11647573477348  2.39740775677568  2.50864609040904
 6 -3.88120865806581  3.57552763526353  3.25111405580558
 6 -4.63614937063706  4.57857632313231  2.59993587778778
 6 -5.29986934933493  3.92544722122212  1.49740489238924
 6 -3.03540216511651  3.79262634633463  4.46349021952195
 6 -4.64797749774978  6.02322235643564  2.96483191999200
 8 -4.11343383068307  6.56122095229523  3.96785075757576
 7 -6.84033568316832  2.62580051255126 -0.63396606430643
 6 -6.91070326812681  3.94504490999100 -0.43429163226323
 6 -7.89821496169617  4.63748480528053 -1.31347415651565
 6 -8.41511454425443  3.62110124022402 -2.13930848324832
 6 -7.75766957845785  2.48422659675968 -1.70894466426643
 6 -8.26189846854686  6.01516288598860 -1.21080221482148
 6 -9.41862834123412  3.84879581788179 -3.16532908150815
 6 -8.84583356405641  3.88901026412641 -4.68600184688469
 7 -6.32190795809581 -0.15000018021802 -1.00027104750475
 6 -7.33857746444644 -0.02465337093709 -1.96100202280228
 6 -7.53953707030703 -1.28796394909491 -2.61139416401640
 6 -6.60575605930593 -2.20641441474147 -2.07407661756176
 6 -5.97289521302130 -1.40928495799580 -1.16812467716772
 6 -8.64668004270427 -1.60838062666267 -3.67670859025903
 6 -6.19439306640664 -3.55097420342034 -1.95254064796480
 8 -6.53101634223422 -4.54320929102910 -2.55250549624962
 6 -4.93456370987099 -3.50667243394339 -0.92589921072107
 6 -5.21128825642564 -4.72080728232823  0.11449860086009
 8 -5.62138632123212 -4.59569550295029  1.25438255855586
 8 -4.93654361756176 -5.87091097519752 -0.46751092249225
 6 -5.14909825902590 -7.02162575367537  0.41875941074107
 6  2.35318199979998 -5.09857611781178  0.61096907820782
 6  3.38010132023202 -4.07189868916892  1.01178246404640
 6  4.01892099579958 -3.26702652355236  0.13009538453845
 6  3.79215411271127 -3.11469465786579 -1.38231590039004
 6  5.12521672767277 -2.47340160836084  0.68059991089109
 6  6.54461006570657 -2.75334028702870  0.12384271017102
 6  7.53096222292229 -1.70746239203920  0.52921675627563
 6  8.95153376187619 -1.91102708470847 -0.17182389558956
 6  9.61456853695369 -3.16442634513451  0.06954007900790
 6  9.89568500410041 -0.76121674257426  0.25227319071907
 6  11.32675583288329 -0.81941473657366 -0.27459276987699
 6  12.14165178577858  0.32242143264326  0.03345413361336
 6  13.51626102020202  0.46271595849585 -0.57065682288229
 6  14.54813298629863 -0.71081181118112 -0.26528321352135
 6  14.20602054025403  1.78572334453445 -0.23157079947995
 6  15.52005128602860  1.99845178047805 -0.99054616231623
 6  16.04531415111511  3.47086959695970 -0.61389248224822
 6  17.41173556825683  3.72138105360536 -1.28866991479148
 6  17.27306628872887  3.77228279097910 -2.83456577657766
 6  18.01226464566457  5.06525465146515 -0.81260221722172
 1 -2.78875438133813  1.01795865946595  3.50832844404440
 1 -6.10217110001000  5.68380458265827  0.66443620632063
 1 -8.78454365346535  1.30662492399240 -3.22790817171717
 1 -3.74440150535054 -3.15914903160316  2.00599634173417
 1 -1.83291437743774 -0.90844845304530  2.65763792979298
 1 -2.69991931713171 -2.52857943884388  4.27956790269027
 1 -3.40900750085008 -0.97492961066107  4.91997813371337
 1 -4.41555323112311 -1.86054397239724  3.77444066666667
 1 -2.49326649224922 -3.22979602460246 -0.36229396399640
 1 -1.42555325502550 -1.56006463386339  0.44888572987299
 1 -0.83199758985899 -2.59737971027103  2.20390493159316
 1 -1.57679715831583 -4.41853869016902  1.75403444014401
 1 -2.04975362746275  3.53703839053905  4.15302768386839
 1 -2.90167782178218  4.80209984908491  4.68566422932293
 1 -3.15576550905091  3.12976617071707  5.29207618441844
 1 -5.20448430773077  6.76038402090209  2.48048016381638
 1 -10.11927591009101  3.10777792969297 -3.17511866646665
 1 -9.95905338823883  4.75091262576258 -3.02290528312831
 1 -9.92090785168517  4.09632753275327 -5.16760307090709
 1 -8.24944891089109  4.85226716731673 -4.91254093589359
 1 -8.20000027492749  2.97737205110511 -4.82266638133813
 1 -8.73877045864586 -0.95896915461546 -4.61536150515052
 1 -8.40307993589359 -2.54740180048005 -3.88373771767177
 1 -9.56145939503950 -1.28029466406641 -3.44804909000900
 1 -4.11272304830483 -3.97052287528753 -1.57525245534554
 1  2.56793473727373 -6.11377867096710  0.92702109000900
 1  2.08012133873387 -5.03400192659266 -0.41917735283528
 1  3.61299728212821 -4.17418754105410  1.97740610471047
 1  2.89625707760776 -3.48137969286929 -1.59207185728573
 1  4.11583892189219 -2.12032673327333 -1.84079229672967
 1  4.32599510691069 -3.89848170447045 -1.87693915121512
 1  4.95534940394039 -1.41935748034803  0.51999239033903
 1  5.16234859325933 -2.42853717091709  1.54960884718472
 1  6.86066528652865 -3.77158145764576  0.43910323202320
 1  6.39461830133013 -2.72903511951195 -1.03150283648365
 1  7.28458926052605 -0.73989054335434  0.15092384568457
 1  7.65121403160316 -1.82986123462346  1.71198867126713
 1  8.65111101070107 -1.59915795649565 -1.20709892859286
 1  9.04379654505451 -3.91854071397140 -0.36849932013201
 1  10.62592562196219 -3.19024237893789 -0.29978756065607
 1  9.73255000260026 -3.48458418701870  1.11177214021402
 1  9.75014607550755  0.31878028842884 -0.06334716031603
 1  10.03348230683068 -0.65599391869187  1.41631256855686
 1  11.54122605370537 -1.76922424412441 -0.07590689848985
 1  11.33524946514651 -1.06560819631963 -1.47748859255926
 1  11.76198621672167  1.21759483128313 -0.31857906830683
 1  12.31077183588359  0.49644092739274  1.25539471457146
 1  13.36789753205320  0.38102284508451 -1.65995220002000
 1  14.72792301950195 -0.68814183148315  0.73227832533253
 1  13.81156154265427 -1.63041622052205 -0.51346760086009
 1  15.40839069556956 -0.84940826852685 -0.91313371637164
 1  13.53143238883888  2.73352165136514 -0.37984786208621
 1  14.20805841804181  1.87776419091909  0.78738756605661
 1  16.29725845294529  1.46176163766377 -0.59090690569057
 1  15.21061585708571  1.77411566296630 -1.96797032793279
 1  15.39958142024202  4.34692790049005 -0.97230851085109
 1  16.17672730663066  3.68265422482248  0.48343080188019
 1  18.05689550635064  2.75372888138814 -1.08298268616862
 1  16.61502863966397  4.65340261916192 -2.89678395729573
 1  18.17877026692669  4.00264665786579 -3.33562099569957
 1  16.77168185348535  2.91359627082708 -3.19413996719672
 1  18.43693156715672  5.17539819281928  0.22116128182818
 1  18.99727733853385  5.44364059055906 -1.23253539463946
 1  17.22849541934194  5.87917232733273 -0.88699705180518
 1 -5.05652353695370 -7.98843994339434 -0.13657797379738
 1 -6.35574606590659 -7.08997837923792  0.78803864716472
 1 -4.40611282868287 -7.03420329652965  1.32560542894289
 8 -7.76982987828783  6.79568960036004 -0.54397782618262
 1 -9.16395977977798  6.09660707640764 -1.94993346084608

