%nproc=3
%Mem=2GB
# td=(NStates=1) iop(3/107=0140000000,3/108=0140000000) iop(3/107=0140000000,3/108=0140000000) CAM-B3LYP/6-31G(d,p) 

TD

0 1
12 -5.59355508670867  1.05294532223222  0.19855252405241
 6 -5.06960708250825 -2.17546151085109 -0.31786485158516
 6 -3.42626408630863  1.15445798729873  2.73519495769577
 6 -6.12811923422342  4.51379940304030  0.51015337653765
 6 -8.03928484648465  1.13070175257526 -2.34337843174317
 7 -4.44438152265227 -0.33946987008701  1.06023619061906
 6 -4.36062128252825 -1.60887206860686  0.72950666916692
 6 -3.25571697339734 -2.23579477807781  1.63839942854285
 6 -2.92323647904790 -1.22545321502150  2.66756354295430
 6 -3.60322712271227 -0.06401555415542  2.11766242484248
 6 -3.50142225022502 -1.65421211381138  4.05568342774277
 6 -1.98096293959396 -2.58039203240324  0.66399058515852
 6 -0.94744250715072 -3.49677476537654  1.44692856975698
 6  0.29961582898290 -3.93114798689869  0.62984114521452
 8  0.40671452535254 -3.49886957575758 -0.56626664206421
 8  1.20971265346535 -4.53138828362836  1.35141112961296
 7 -4.93892244324432  2.65084532123212  1.44176086268627
 6 -4.03205729292929  2.46524454045405  2.40910613641364
 6 -3.67302783998400  3.71241132363236  3.06496544094409
 6 -4.46527228292829  4.64846331183118  2.54519040324032
 6 -5.29373873627363  3.93412808930893  1.48672382428243
 6 -2.87559618451845  3.76559364306431  4.23770764126413
 6 -4.60638333833383  6.07332736693669  2.88218365516552
 8 -4.08132061936194  6.55186001620162  3.86476044854485
 7 -6.89430107970797  2.50390832333233 -0.71676434413441
 6 -7.01052325012501  3.88677908340834 -0.38925712881288
 6 -7.86633177337734  4.58970002680268 -1.23955676477648
 6 -8.39988302110211  3.67883701380138 -2.03762831523152
 6 -7.84224803630363  2.37389556365637 -1.75814958475848
 6 -8.25734801350135  6.08730009970997 -1.16950808540854
 6 -9.39296577497750  3.78172911121112 -3.06352890149015
 6 -8.79366834753475  4.09307067016702 -4.58690193689369
 7 -6.28391415871587 -0.08355353555356 -1.17594861526153
 6 -7.28603220992099 -0.01929283488349 -2.12643856645665
 6 -7.48419153575358 -1.34489964266427 -2.75734875947595
 6 -6.58120360406041 -2.22257603090309 -2.11141035093509
 6 -5.98588651215122 -1.50408443794379 -1.07209507420742
 6 -8.43999937463746 -1.65774556315632 -3.79354027342734
 6 -6.15475910301030 -3.55927503350335 -2.02508790269027
 8 -6.56501974257426 -4.57447241734173 -2.62717296299630
 6 -5.06004625812581 -3.55485725242524 -0.89372599339934
 6 -5.34556168376838 -4.60245544714471  0.25911306230623
 8 -5.81178536113611 -4.41576751015102  1.30848796909691
 8 -5.24565452865287 -5.79674355845585 -0.19737390879088
 6 -5.66795014421442 -6.89987357845785  0.59245678047805
 6  2.39889657125713 -5.11711797199720  0.59052703400340
 6  3.49774308440844 -4.32858435773577  0.96413769956996
 6  4.06858596229623 -3.33092291319132  0.10552292729273
 6  3.74201909920992 -3.22293548194819 -1.28910657945795
 6  5.19438364436444 -2.49419368756876  0.63486533743374
 6  6.57381298599860 -2.63658861186119 -0.11534120822082
 6  7.63969309600960 -1.73125477127713  0.46843067766777
 6  9.03814242274228 -1.93049903190319 -0.12878959215922
 6  9.66482356245625 -3.33260316281628  0.15266839183918
 6  9.99524496009601 -0.86144676557656  0.25756371977198
 6  11.41137429472947 -0.84114690979098 -0.46134144474447
 6  12.17252487308731  0.33846303680368  0.05983677187719
 6  13.61702109620962  0.44097378427843 -0.68889864706471
 6  14.45712388538854 -0.68934966496650 -0.43936062126213
 6  14.22127206540654  1.78700347254725 -0.28054569696970
 6  15.38395767666767  2.13395533083308 -0.98497560526053
 6  16.04207382708271  3.39411192119212 -0.44112520552055
 6  17.38407280198020  3.91102001750175 -1.18203925172517
 6  17.11024000610061  4.13798936163616 -2.73058537853785
 6  17.92971639083908  5.19306743274328 -0.56886784378438
 1 -2.77228273417342  1.31231809540954  3.46759437063706
 1 -6.52427331023102  5.58827502970297  0.70533029572957
 1 -8.91366656575658  1.01704596609661 -2.92015739663966
 1 -3.48790585578558 -3.21407452415242  2.08685442754275
 1 -1.91803288928893 -1.17061466966697  2.89130129612961
 1 -2.94208353355336 -2.55271185208521  4.46912685858586
 1 -3.43116971707171 -0.79009112681268  4.75997213311331
 1 -4.47836951275128 -2.04985290329033  3.81236445904590
 1 -2.17240440604060 -3.11796484148415 -0.35043277787779
 1 -1.50826152585258 -1.69802843024302  0.50905174647465
 1 -0.39120351045105 -2.90971094339434  2.26582112321232
 1 -1.58461794039404 -4.30296713301330  1.94791382808281
 1 -1.81664031613161  3.12682736943694  4.04260664176418
 1 -2.55652330633063  4.88282792189219  4.45650131303130
 1 -3.13259319181918  3.13735692979298  5.01869884668467
 1 -5.32574643394339  6.59296727922792  2.15778789458946
 1 -9.99299328182818  2.83019017091709 -3.24384553915392
 1 -10.02593007590759  4.66656419091909 -2.94073706630663
 1 -9.66255201610161  4.31112901290129 -5.31705801640164
 1 -8.20288425442544  5.10468240884088 -4.41086076787679
 1 -8.08081835673567  3.26515082898290 -4.71462557725773
 1 -8.12320890249025 -1.13061631933193 -4.78005797479748
 1 -8.60533016091609 -2.79885694599460 -3.85773511741174
 1 -9.48989223832383 -1.43065970057006 -3.44663894899490
 1 -4.13327510351035 -3.87074289728973 -1.18769369946995
 1  2.71468941274127 -6.05980327342734  1.11829021692169
 1  2.01540486708671 -5.12680120652065 -0.44322975807581
 1  3.97619360176018 -4.24231435373537  2.03975233933393
 1  2.75795324722472 -3.50844239913991 -1.50653330343034
 1  3.75786312431243 -2.22091679227923 -1.53470168766877
 1  4.52040454785479 -3.75587744404440 -1.84262571987199
 1  4.98893276227623 -1.49974551915192  0.30090048114812
 1  5.03112547094709 -2.60185450265027  1.67726161246125
 1  6.97650687068707 -3.66182048154816 -0.02910358865887
 1  6.36248508800880 -2.50690290629063 -1.12810249644965
 1  7.45099590119012 -0.68543509780978  0.31463021632163
 1  7.83126203640364 -1.80260850935094  1.47131460386039
 1  9.06595249484949 -1.90467850855085 -1.13123134183418
 1  9.04231639703970 -4.06743560346035 -0.25238770897090
 1  10.62997602700270 -3.47049040374037 -0.12008959085909
 1  9.51368811641164 -3.62336806540654  1.24117508050805
 1  9.51060212111211  0.16485489588959  0.15499467386739
 1  10.07100605920592 -1.10589890919092  1.30409134643464
 1  11.61444337543754 -1.96111343304330 -0.19913922172217
 1  10.98829476967697 -0.71217285278528 -1.45705654935494
 1  11.58282830093009  1.12112518431843 -0.14255146554655
 1  12.25592635133513  0.17587887118712  1.22005118021802
 1  13.43198394069407  0.40312505530553 -1.82459866466647
 1  15.12727295449545 -0.96767978527853  0.54509960746075
 1  13.94441482798280 -1.60830400930093 -0.89927618171817
 1  15.38190804730473 -0.79117244494449 -1.05994839783978
 1  13.63274251985198  2.52618091729173 -0.29780965826583
 1  14.38468608080808  1.62347876237624  0.77671649894989
 1  16.08704743184318  1.41680714221422 -1.11053886888689
 1  15.16296109160916  2.09967821922192 -2.18652218311831
 1  15.29456091819182  4.40905411311131 -0.40142142214221
 1  16.46952658655865  3.29428538793879  0.75562802160216
 1  18.24749456625663  3.15507901640164 -1.15489987788779
 1  16.36335347214721  4.96592387128713 -2.48212249114912
 1  17.89601199109911  4.59005539873987 -3.49955738933893
 1  16.82635732103210  3.36289120032003 -3.38331888508851
 1  18.02260013401340  4.98988964196420  0.68648781448145
 1  19.03291090189019  5.47626385288529 -0.91813395449545
 1  17.32420499029903  5.99637404750475 -0.89795814791479
 1 -5.50900878547855 -7.73763486288629  0.07312299629963
 1 -6.68462895419542 -6.78941832323232  0.79392923622362
 1 -5.12664488188819 -7.02922279847985  1.62004487288729
 8 -7.85388828412841  6.81690172157216 -0.33157658605861
 1 -9.05621900570057  6.27153456915692 -1.75874434193419

