%nproc=3
%Mem=2GB
# td=(NStates=1) iop(3/107=0140000000,3/108=0140000000) iop(3/107=0140000000,3/108=0140000000) CAM-B3LYP/6-31G(d,p) 

TD

0 1
12 -5.73306903810381  1.25577560526053  0.20623329212921
 6 -5.04859498129813 -2.08699266396640 -0.39838290339034
 6 -3.47868932883288  1.17034957645765  2.77669910811081
 6 -6.22110853315332  4.53928195129513  0.62385474667467
 6 -8.25156607460746  1.08640732313231 -2.31552564646465
 7 -4.37887497199720 -0.18899482258226  1.02309247624762
 6 -4.28782400280028 -1.50530171157116  0.62634635313531
 6 -3.19607100880088 -2.26729792839284  1.50810639923992
 6 -3.01389554495450 -1.34265493519352  2.63813059965997
 6 -3.60822762276228 -0.03335248784879  2.15738639723972
 6 -3.61253336133613 -1.83709040164016  3.99440730013001
 6 -1.97426226952695 -2.74343833703370  0.61256544264426
 6 -0.98079584248425 -3.39377446534654  1.37985186208621
 6  0.19805567296730 -3.69512438453845  0.58329649074907
 8  0.53306716061606 -3.31860154895490 -0.54223423882388
 8  0.94569625182518 -4.56787193199320  1.31441743024302
 7 -5.02083063406341  2.62361259795980  1.47151383798380
 6 -4.03764785198520  2.35603361936194  2.51032625842584
 6 -3.78168870607061  3.65261534403440  3.17919686408641
 6 -4.49602535823582  4.61362982848285  2.55531141534153
 6 -5.27798716111611  3.98073274977498  1.49678483038304
 6 -2.84133275817582  3.76810389408941  4.31549542004200
 6 -4.47995069506951  6.08251828602860  2.75240067686769
 8 -3.83978646594659  6.62291712191219  3.61827580008001
 7 -7.02115376497650  2.53071100360036 -0.66014868256826
 6 -7.02640483828383  3.90633103860386 -0.33652185528553
 6 -7.97614275447545  4.59834089088909 -1.15199800890089
 6 -8.49982301510151  3.61273040314031 -2.05530008240824
 6 -7.88762257375738  2.30837901200120 -1.60691446124612
 6 -8.42304458315832  5.99666103580358 -1.09090022462246
 6 -9.50006648504850  3.76496743504350 -3.17855040364036
 6 -8.91713069376938  3.90371173427343 -4.57301054775477
 7 -6.39686545384538 -0.08961414161416 -1.12924394479448
 6 -7.37900150685068  0.01553064746475 -2.07301322392239
 6 -7.69915303190319 -1.36674182688269 -2.64009703430343
 6 -6.76027151085109 -2.22579635293529 -2.03317252715272
 6 -6.05901382488249 -1.43974800430043 -1.12144000870087
 6 -8.59305468016802 -1.72788257685769 -3.71738265766577
 6 -6.29685331243124 -3.57100620662066 -1.97363275717572
 8 -6.72627586818682 -4.56956192629263 -2.52092233793379
 6 -5.04786504000400 -3.48345011171117 -0.91899852065207
 6 -5.25553268086809 -4.58529373097310  0.05019217021702
 8 -5.70014419701970 -4.47095302870287  1.15553267356736
 8 -5.00081004420442 -5.80448433253325 -0.47415158655866
 6 -5.20694404360436 -6.93912750385038  0.40916845164516
 6  2.25897257885789 -5.09662592279228  0.63698167946795
 6  3.47840115021502 -4.24454595389539  0.97436872267227
 6  4.12722182588259 -3.25652547344734  0.20434280928093
 6  3.87485238253825 -3.12323551195119 -1.28731640044004
 6  5.21225543154315 -2.47027129532953  0.66744859575958
 6  6.58114371907191 -2.64205915891589 -0.06169584368437
 6  7.71226035273527 -1.73801544734473  0.51858569316932
 6  9.11820042854285 -1.93896987898790  0.03681696849685
 6  9.64184126422642 -3.35681558405841  0.23991711671167
 6  10.10530596619662 -0.92551317221722  0.44086204960496
 6  11.44094725202520 -0.89286208130813 -0.26770208080808
 6  12.29704732533253  0.28195738623862  0.16470725892589
 6  13.61852124622462  0.37187687458746 -0.50740049724972
 6  14.63253142614261 -0.84037476747675 -0.28823550875088
 6  14.31523146134614  1.72972774497450 -0.23079072147215
 6  15.56820610151015  2.20046198149815 -1.02905001270127
 6  16.12349196889689  3.50994350435044 -0.70258135113511
 6  17.53073746844684  3.81622053755376 -1.29299034683468
 6  17.37459644174418  4.00735629832983 -2.84807712771277
 6  18.07501092029203  5.08565669166917 -0.70776173317332
 1 -2.60124563046305  1.34544140774077  3.62422003320332
 1 -6.60531141404140  5.48080428262826  0.81258102080208
 1 -8.88390358945895  1.09063332483248 -3.13142852375238
 1 -3.78439550475048 -3.12407552425242  1.78034377647765
 1 -1.93491457745775 -0.87485509370937  2.82709487548755
 1 -3.03846317151715 -2.69564614551455  4.47075702160216
 1 -3.52716931703170 -1.02670478817882  4.84786092199220
 1 -4.62935461126113 -1.90962888088809  3.84352757535754
 1 -2.45432259785979 -3.16877992299230 -0.29624735933593
 1 -1.51087178687869 -1.61247987538754  0.34777561886189
 1 -0.50099448954895 -2.75365533783378  2.23111765286529
 1 -1.19560903950395 -4.29728656495649  1.81070010671067
 1 -1.74276292839284  3.55707039373937  4.01425380648065
 1 -2.93582123612361  4.84125376447645  4.87304296719672
 1 -3.10220015251525  2.89974316841684  5.15228220502050
 1 -5.20946480578058  6.46882486498650  1.90738285408541
 1 -10.34467845034503  3.03671082298230 -3.01083223782378
 1 -10.05615309820982  4.65584311881188 -3.02242523512351
 1 -9.70383614451445  3.94033193319332 -5.32825913651365
 1 -8.27366133213321  4.79022096269627 -4.54940462226223
 1 -8.09681995689569  2.99609392329233 -4.83018713341334
 1 -8.48508509010901 -1.19938319601960 -4.68872884188419
 1 -8.26480610851085 -2.89160622092209 -3.86135547944794
 1 -9.73291654075408 -1.63562019661966 -3.36682096719672
 1 -4.10180195619562 -3.72794861786179 -1.57376230633063
 1  2.24962290609061 -6.09007630073007  0.87246563446345
 1  2.20657398399840 -4.92364089048905 -0.60472590769077
 1  4.04569055145515 -4.31248137043704  1.90622898699870
 1  2.92031948384838 -3.51836339123912 -1.50256290639064
 1  3.97235457345735 -2.05179988058806 -1.59068728622862
 1  4.41410391779178 -3.58973082938294 -1.89037049434943
 1  4.92283615261526 -1.47565310991099  0.28647903900390
 1  5.29799215761576 -2.47137145434543  1.69662354865487
 1  6.93048226822682 -3.59706400590059 -0.02098277657766
 1  6.46983582308231 -2.31970418641864 -1.20329001520152
 1  7.41898269986999 -0.65972252655266  0.64856360966097
 1  7.77955686588659 -2.15600384888489  1.56915438783878
 1  9.01984788438844 -2.00584862556256 -1.04195241394139
 1  8.92701486688669 -4.18740760066007  0.01526905670567
 1  10.46907993739374 -3.21656501120112 -0.46675425732573
 1  10.08361510911091 -3.65280100870087  1.12273323632363
 1  9.62181324222422  0.19385779617962  0.35301447584758
 1  10.08747770637064 -0.92094041334133  1.69273021032103
 1  12.00060199129913 -1.68350567226723 -0.03707301510151
 1  11.18417435763576 -0.72358399389939 -1.39578042174217
 1  11.96721673977398  1.32990606240624  0.28405119471947
 1  12.58089884858486  0.23423470677068  1.14207338243824
 1  13.49274001630163  0.25684042684268 -1.59962616741674
 1  14.86219644684468 -0.66540955825583  0.76467156465647
 1  14.08629901640164 -1.69048222712271 -0.53840009410941
 1  15.67275713221322 -0.64778810651065 -0.63718612161216
 1  13.74581382698270  2.62727102630263 -0.56617649494949
 1  14.48318593079308  2.03869028352835  0.91049987728773
 1  16.20276900400040  1.36113157465747 -0.88646646164616
 1  15.42613740924092  2.24153240464046 -1.89747327822782
 1  15.26016747884788  4.20620382808281 -1.17478875887589
 1  16.20470010391039  3.56343230263026  0.38903136193619
 1  18.28996881368137  3.02963647214721 -1.14445883378338
 1  16.69083622042204  4.93708098699870 -2.78764304320432
 1  18.41077346724672  4.15554194739474 -3.34177161076108
 1  17.06394107940794  2.98979389058906 -3.37591814501450
 1  18.09789766376637  5.07324797779778  0.33298246394639
 1  19.08537614841484  5.33991021752175 -1.02726486758676
 1  17.32217478727873  6.08490290039004 -0.91067942004200
 1 -4.80001788638864 -7.83652475187519 -0.17080139613961
 1 -6.36660715201520 -6.88520790219022  1.00997084038404
 1 -4.26952917031703 -6.92954283048305  1.02612548094810
 8 -7.99128202350235  6.80687071847185 -0.26509993839384
 1 -9.09466285008501  6.29061647734774 -1.90336880438044

