%nproc=3
%Mem=2GB
# td=(NStates=1) iop(3/107=0140000000,3/108=0140000000) iop(3/107=0140000000,3/108=0140000000) CAM-B3LYP/6-31G(d,p) 

TD

0 1
12 -5.68919465066507  1.26004603230323  0.23316598539854
 6 -4.89625974777478 -2.05818978367837 -0.31245431053105
 6 -3.35334679457946  1.18696123762376  2.73904534273427
 6 -6.22463888618862  4.56532455555556  0.60204256545655
 6 -7.92876379437944  1.18483716611661 -2.39103319721972
 7 -4.38718580308031 -0.28605452855286  1.15695586258626
 6 -4.23027824822482 -1.53237441884188  0.65423914241424
 6 -3.26259766146615 -2.31367256585659  1.48199378797880
 6 -2.90241439683968 -1.35229589928993  2.65592237883788
 6 -3.60731753175318 -0.09951910451045  2.22812347094709
 6 -3.30991309930993 -1.81339803240324  4.03263112251225
 6 -1.90981582488249 -2.82714670787079  0.72373655975598
 6 -0.96287405030503 -3.68020310821082  1.49938381528153
 6  0.26498236563656 -3.94992986508651  0.69802796389639
 8  0.48741259515952 -3.48275796459646 -0.42849286468647
 8  1.01307298949895 -4.66785192999300  1.46550253875388
 7 -4.93421197219722  2.62371260796080  1.47066375297530
 6 -3.95150923812381  2.46522453845385  2.46334155995600
 6 -3.66301683888389  3.65720580308031  3.13374231863186
 6 -4.48813456915692  4.70723918941894  2.54466035023502
 6 -5.20539990239024  4.00160483698370  1.56189134103410
 6 -2.87621624652465  3.80542762646265  4.29405327582758
 6 -4.63726642664266  6.06321635583558  3.01352678947895
 8 -4.03116560386039  6.53862869306931  3.94897887038704
 7 -6.90227187678768  2.54883281578158 -0.73161582928293
 6 -6.96277847564757  3.89334974047405 -0.35604380748075
 6 -7.93674881508151  4.59835089188919 -1.23016582568257
 6 -8.54673770657066  3.64510364046405 -2.06758131053105
 6 -7.81307511901190  2.41647982208221 -1.67093086288629
 6 -8.39361163986399  6.02636400610061 -1.13399453405341
 6 -9.41893837223722  3.92608354665467 -3.31943449204921
 6 -8.70912989368937  4.14955631873187 -4.60503375007501
 7 -6.34507027432743 -0.14752993319332 -1.12770379077908
 6 -7.32323593029303 -0.01610251585158 -2.09297522012201
 6 -7.49360247684768 -1.34200935363536 -2.80648367296730
 6 -6.50557604130413 -2.23518729202920 -2.19507871777178
 6 -5.90607853135314 -1.44747877737774 -1.17850571527153
 6 -8.40362573727373 -1.48406819541954 -4.01249216861686
 6 -6.04162778987899 -3.59142824882488 -2.09019441334133
 8 -6.40040328092809 -4.57604257435744 -2.60333057875788
 6 -4.87544779827983 -3.46979874657466 -0.89006562736274
 6 -5.15195232283228 -4.56031123272327 -0.03748659765977
 8 -5.60334451705170 -4.46474240764076  1.16949406970697
 8 -4.80213017621762 -5.83486737083708 -0.52204637603760
 6 -5.28476182538254 -6.87715130623062  0.31605914071407
 6  2.32295897749775 -5.11793805400540  0.70520850215022
 6  3.34741805190519 -4.16372787208721  1.00447173297330
 6  4.01588069176918 -3.30293011391139  0.21029340434043
 6  3.68994389168917 -3.16949013741374 -1.22882055085509
 6  5.08051225722572 -2.46494076227623  0.86456830773077
 6  6.45894149884988 -2.69363431643164  0.17118744464446
 6  7.57015614231423 -1.84352599839984  0.76501033563356
 6  8.92239084758476 -2.04015999799980  0.02874616141614
 6  9.46478355845585 -3.45865576807681  0.37374049904991
 6  9.91498693429343 -0.87084770567057  0.43007097049705
 6  11.20063322062206 -0.89572236733673 -0.24759006960696
 6  12.16464408500850  0.27577676817682  0.12676346454645
 6  13.50366976107611  0.39958964586459 -0.57599735693569
 6  14.43978215121512 -0.82983371337134 -0.33662034723472
 6  14.19147908610861  1.78331310351035 -0.25131277367737
 6  15.44281356225622  2.08520045534553 -1.01537864556456
 6  15.91726134583458  3.52620513051305 -0.67624871787179
 6  17.14951934663466  3.91232014751475 -1.61846289408941
 6  16.84031301340134  4.17681324402440 -3.06558887888789
 6  17.77928134733473  5.20062818881888 -0.94189514651465
 1 -2.73966947284729  1.14979184278428  3.71260887208721
 1 -6.45073595649565  5.62835903810381  0.76601636433643
 1 -8.71979717881788  1.29245350685069 -3.18987436833683
 1 -3.73883094829483 -3.17900101680168  1.94036977907791
 1 -1.81286237223722 -1.29042665086509  2.68553071907191
 1 -2.72870219541954 -2.59782636353635  4.53030297619762
 1 -3.20800740084008 -0.98484060176018  4.67928406430643
 1 -4.51229290509051 -2.15543346134613  3.96686990959096
 1 -2.13523068866887 -3.01653469846985 -0.23013074767477
 1 -1.42386308600860 -1.79389801720172  0.40821166246625
 1 -0.63787817791779 -3.32368234053405  2.36632117321732
 1 -1.78328780738074 -4.51749858615862  1.74890392709271
 1 -1.93105175727573  3.57881256795680  4.17971035213521
 1 -2.99297695169517  4.82685232433243  4.83537920082008
 1 -3.25782571507151  3.01342453655366  5.03906088288829
 1 -5.33656751605160  6.87855583808381  2.43192530833083
 1 -10.17204118661866  3.16165331723172 -3.35263641824182
 1 -9.99151663456346  4.80654818931893 -3.01751474407441
 1 -9.44502026292629  4.33682158215822 -5.30963727432743
 1 -8.24476844284428  5.06920886148615 -4.56397607940794
 1 -7.84807508240824  3.54029834373437 -4.87428154285428
 1 -8.05045162676268 -0.92239549724973 -4.84048401740174
 1 -8.01092071997200 -2.49552661296130 -4.55536488038804
 1 -9.42311556065606 -1.42740937553755 -3.53995828092809
 1 -3.95633740974097 -3.68082390539054 -1.53066799689969
 1  2.43937188098810 -6.23922121522152  1.08705709360936
 1  1.77355068166817 -4.94753327972797 -0.32875831093109
 1  3.72368835123512 -4.11851197349735  2.00609897399740
 1  2.70236768866887 -3.21308286318632 -1.45404805490549
 1  4.01064840284028 -2.07859255985599 -1.56147436493649
 1  4.12720522792279 -3.78909076537654 -1.83454491179118
 1  4.80956482548255 -1.38692423702370  0.58007839893989
 1  5.04887724612461 -2.56765108230823  1.83410729702970
 1  6.94265348534853 -3.75874017351735  0.37276659835984
 1  6.46585542504250 -2.72563477947795 -0.89741942814281
 1  7.27211801340134 -0.71890844514451  0.51482023532353
 1  7.71054996519652 -1.87633588208821  1.87054452685268
 1  8.94525042464247 -1.96489453015302 -1.07125534423442
 1  8.82202436783678 -4.28796765666567  0.03000052985299
 1  10.52371540094009 -3.75775913061306 -0.12229981188119
 1  9.79814656225623 -3.44099982858286  1.40765172817282
 1  9.46139720062006 -0.06783837343734  0.05671484588459
 1  10.10431939053905 -0.66683500280028  1.59631056835684
 1  11.65093702480248 -1.99919724142414  0.14831552375237
 1  11.21772771297130 -0.93332496799680 -1.31774261796180
 1  11.56669668776878  1.26761983378338  0.19513230283028
 1  12.40523128182818  0.20118140144014  1.22455163026303
 1  13.27735847814781  0.45443018581858 -1.51197740254025
 1  14.86346657385739 -0.81033405070507  0.77902299979998
 1  13.84111449794980 -1.70977415631563 -0.61229748384839
 1  15.28822867936794 -0.86976030373037 -0.91495389838984
 1  13.42803204880488  2.48301660086009 -0.54855473277328
 1  14.33616122832283  1.72002841734173  0.72266109340934
 1  16.28553728082808  1.23939940144014 -1.18075589058906
 1  15.08103289878988  1.85271352275228 -2.20335386628663
 1  15.11073253535353  4.26735994369437 -0.91432271227123
 1  16.20453008690869  3.62443840324032  0.36192865166517
 1  17.78188800560056  3.05460896939694 -1.59424381228123
 1  16.12065920272027  5.11610888978898 -3.14960923982398
 1  17.76503889378938  4.30196658985899 -3.58356579017902
 1  16.22038672397240  3.24340925212521 -3.66772732593259
 1  18.40757863186318  5.01972262526253  0.14533369906991
 1  18.69260687148715  5.64293051955196 -1.50674281538154
 1  17.04886745654565  6.02076648674868 -0.94921327342734
 1 -4.85684356895690 -7.65600670007001 -0.19709402540254
 1 -6.28823931523152 -6.95035441684169  0.44594443774378
 1 -4.78197041444144 -6.78873875007501  1.24200706910691
 8 -7.91968486378638  6.91466149754975 -0.38469189758976
 1 -9.32920630443044  6.25633304900490 -1.78620708820882

