%nproc=3
%Mem=2GB
# td=(NStates=1) iop(3/107=0140000000,3/108=0140000000) iop(3/107=0140000000,3/108=0140000000) CAM-B3LYP/6-31G(d,p) 

TD

0 1
12 -5.54589032023202  1.30830085778578  0.11259392819282
 6 -4.96154627642764 -2.10148411311131 -0.41911497659766
 6 -3.33342480238024  1.22246478797880  2.83645508370837
 6 -6.07033345564556  4.63586160926093  0.60630299149915
 6 -7.89586050405041  1.20830951335134 -2.43786788068807
 7 -4.33614069856986 -0.22627855095510  1.06905707270727
 6 -4.29109432983298 -1.51451263266327  0.69869358785879
 6 -3.21026242794279 -2.26582778137814  1.56980256885689
 6 -2.91560571597160 -1.28068873857386  2.76632341894189
 6 -3.47973477347735  0.06853770117012  2.21195185378538
 6 -3.48646075407541 -1.72452914551455  4.12156001540154
 6 -1.99791463476348 -2.71417541074107  0.73512769886989
 6 -1.08358612151215 -3.56459154705471  1.55231910881088
 6  0.16884275167517 -4.05502037413741  0.60816897799780
 8  0.38647250115011 -3.67537722652265 -0.46352636803680
 8  0.99003068526853 -4.75598074287429  1.42339832833283
 7 -4.78217676867687  2.64882511921192  1.42694938153815
 6 -4.03677776497650  2.41719973597360  2.54749997579758
 6 -3.76728726592659  3.63156323882388  3.20626957135714
 6 -4.52722847854785  4.62748121362136  2.57739362356236
 6 -5.18578794119412  3.99197387388739  1.50940609250925
 6 -2.86387501240124  3.74595167886789  4.41964583508351
 6 -4.58021072107211  6.02606264046405  2.95793122992299
 8 -3.91101358865887  6.68525335553555  3.75669964246425
 7 -6.66492814241424  2.70936886938694 -0.81654432213221
 6 -6.81666386418642  4.04825523102310 -0.49996819991999
 6 -7.95565070527053  4.60362141894189 -1.32865567466747
 6 -8.38571160396040  3.71232036213621 -2.16927147954795
 6 -7.69348315981598  2.42508068216822 -1.84442821262126
 6 -8.09996227492749  6.05752712241224 -1.28039917451745
 6 -9.46767324572457  3.76846778507851 -3.21250379897990
 6 -8.88703768446845  4.07370873397340 -4.59740298699870
 7 -6.25629139643964 -0.10302548274827 -1.16981800220022
 6 -7.21243485018502  0.02122121652165 -2.13276919951995
 6 -7.56210932753275 -1.39506465916592 -2.64561758635864
 6 -6.61985746944694 -2.21433520682068 -2.00223943384338
 6 -5.92296021952195 -1.51562559205921 -1.09915778047805
 6 -8.54818019271927 -1.66250603920392 -3.68786970637064
 6 -6.12113574067407 -3.58148725472547 -1.89269466336634
 8 -6.45153839443944 -4.57086205630563 -2.55090533623362
 6 -4.92354260776078 -3.52839460616062 -0.88669529032903
 6 -5.24009113671367 -4.61978718031803  0.20987813881388
 8 -5.72014619721972 -4.57094302770277  1.31302842314231
 8 -4.91120108330833 -5.82182606670667 -0.39887405880588
 6 -5.30017336653665 -6.98234182528253  0.35342287708771
 6  2.25538221982198 -5.19357561776178  0.75747372867287
 6  3.30870418051805 -4.14770626992699  1.05335662146215
 6  4.01403050675068 -3.36991681258126  0.23468584358436
 6  3.70174507180718 -3.33948713711371 -1.24230189898990
 6  5.08987319331933 -2.46866113431343  0.73957580848085
 6  6.45969157385739 -2.74701965496550  0.12068239413941
 6  7.55950507720772 -1.85521716751675  0.58578241284128
 6  8.88758736723672 -2.03347932993299 -0.23366007920792
 6  9.48759583968397 -3.35007490999100 -0.13007988298830
 6  9.92288772437244 -1.02242286318632  0.25639360276028
 6  11.25802896019602 -0.97943073817382 -0.45223053365337
 6  12.15086270687069  0.24714390489049 -0.05266447824782
 6  13.48093748784878  0.42359204610461 -0.79640939813981
 6  14.27000517351735 -0.85950668066807 -0.61594828002800
 6  14.08378831703170  1.69846461866187 -0.24781242364236
 6  15.44479376027603  2.20194212951295 -0.83730083778378
 6  15.90660027972797  3.63379588958896 -0.59295038803880
 6  17.22001639633963  4.14047296279628 -1.20937198499850
 6  16.96052503460346  4.24737029972997 -2.67025934593459
 6  17.70836425562556  5.50920904690469 -0.55295625262526
 1 -2.71641714761476  1.21474833843384  3.81919953115312
 1 -6.28805968886889  5.53061926412641  0.50147991069107
 1 -8.51001620072007  1.17090135163516 -3.23629901080108
 1 -3.61450851605160 -3.27587070377038  1.77313305540554
 1 -1.86436752275228 -1.07230483868387  2.89456162216222
 1 -3.09274860006001 -2.62590917181718  4.40329027492749
 1 -3.41806840694069 -1.12278439613961  4.84143027892789
 1 -4.48443011881188 -1.96233415141514  3.83957718031803
 1 -2.38045521112111 -3.21018406340634 -0.25137287188719
 1 -1.49383008270827 -1.95906453385339  0.04246508780878
 1 -0.56421081118112 -3.20035000730073  2.32693723482348
 1 -1.68551803040304 -4.55537237353735  1.52362139883988
 1 -1.95137378947895  3.43870855755576  4.02935531663166
 1 -2.75266292029203  4.87608724782478  4.95961162406241
 1 -3.03015294779478  2.98664185828583  5.11119809660966
 1 -5.29721358065807  6.62744072657266  2.22765488128813
 1 -10.04016799929993  2.82741989388939 -3.24558571317132
 1 -10.07951543444345  4.69459699419942 -2.69812280488049
 1 -9.81397715861586  4.09207710771077 -5.23625993659366
 1 -8.40085405140514  5.14957689828983 -4.69693937573757
 1 -8.11460173507351  3.39717403130313 -5.11962607730773
 1 -8.32358894049405 -1.07796105380538 -4.69106907590759
 1 -8.40530015791579 -2.73566062636264 -3.92998234213421
 1 -9.47173042214221 -1.38674530913091 -3.14645893099310
 1 -3.91260303630363 -3.65168099109911 -1.46336126622662
 1  2.52415035883588 -6.03223051615161  1.30144853275328
 1  1.91698502510251 -5.62592111851185 -0.27496293139314
 1  3.69051503390339 -4.25620574287429  2.13643200730073
 1  2.59521697359736 -3.70831238613861 -1.42222487258726
 1  3.88634597259726 -2.33835853645365 -1.73104132163216
 1  4.38162066946695 -4.02303415971597 -1.66283774107411
 1  4.87273114211421 -1.40990653525352  0.54243463456346
 1  5.25396775517552 -2.53092740994099  1.86351023732373
 1  6.88295751575157 -3.80569486898690  0.40228955065507
 1  6.48397723722372 -2.71799401540154 -1.08736842304230
 1  7.28504930653065 -0.87061361566157  0.50064881818182
 1  7.95976488668867 -1.85797404590459  1.65320279267927
 1  8.77745364496450 -2.02401044174417 -1.34124234293429
 1  8.91404356975698 -4.27642650255026 -0.40432290249025
 1  10.45253828322832 -3.45619897459746 -0.55362294419442
 1  9.79006575417542 -3.35374110271027  0.96147711071107
 1  9.60482154305430 -0.07308889848985  0.19428860326033
 1  9.99563852245224 -0.90892921222122  1.51013195049505
 1  12.02142407350735 -1.99492681438144 -0.36900620842084
 1  11.06298223842384 -0.78904053955396 -1.63127397109711
 1  11.36291630973097  1.08357142894289 -0.17627483788379
 1  12.41317207590759  0.12234351765177  0.94079325442544
 1  13.18146888918892  0.49675441824182 -1.93189939473947
 1  14.40785101230123 -1.02548556585659  0.48214331183118
 1  13.70874126062606 -1.74577775667567 -0.99047530163016
 1  15.16366622312231 -0.76441976967697 -1.23715611861186
 1  13.27051629722972  2.49967826702670 -0.48466834413441
 1  14.02011962416242  1.63313972847285  1.00574940224022
 1  16.15540426752675  1.39168462996300 -0.62454026902690
 1  15.44071886738674  2.04799305070507 -2.02641617251725
 1  14.91487294939494  4.31032424012401 -0.87719899989999
 1  16.06084571847185  3.58541450085009  0.64658711751175
 1  17.96886670347035  3.31152466096610 -1.04655904380438
 1  15.99320645744574  5.08132541144114 -2.65552983188319
 1  17.68680107000700  4.64217061026102 -3.24068150175018
 1  16.65226991229123  3.27309222042204 -3.21887244044404
 1  17.96845471947195  5.44781543454345  0.50971013671367
 1  18.73784139493949  5.68794502100210 -1.14833697479748
 1  16.96013858365837  6.31119552965297 -0.62450080218022
 1 -4.98958684328433 -7.79685078447845 -0.11499581558156
 1 -6.27277776907691 -7.15281466286629  0.34588443174317
 1 -4.89356157355736 -7.04405428162816  1.32159502790279
 8 -7.72176507180718  6.76383641504150 -0.34390781918192
 1 -8.59042242604260  6.47993540924092 -1.99152762026203

