%nproc=3
%Mem=2GB
# td=(NStates=1) iop(3/107=0140000000,3/108=0140000000) iop(3/107=0140000000,3/108=0140000000) CAM-B3LYP/6-31G(d,p) 

TD

0 1
12 -5.59669540074007  1.28097812551255  0.12666533533353
 6 -5.04633475527553 -2.16828079277928 -0.29674273937394
 6 -3.48034949484948  1.14570711221122  2.85678711691169
 6 -6.19239566186619  4.56598462156216  0.61191355255526
 6 -7.89185010301030  1.18398708110811 -2.35225931983198
 7 -4.31205829032903 -0.27056297939794  1.06776694369437
 6 -4.27215243564356 -1.62144332573257  0.70049376787679
 6 -3.24104550625063 -2.43041424002400  1.50925651425143
 6 -3.03578773417342 -1.41577224692469  2.82381916851685
 6 -3.57231403140314 -0.04952410501050  2.22557321592159
 6 -3.70557266526653 -1.78469516211621  4.08865672507251
 6 -1.94228907220722 -2.75775976917692  0.73388757485749
 6 -0.87231499439944 -3.53322841074107  1.53811768866887
 6  0.36203207060706 -3.76657152925293  0.67335549664967
 8  0.50969482338234 -3.31663135193519 -0.44256427182718
 8  1.10413209540954 -4.77573271807181  1.30095608410841
 7 -4.81861041204120  2.60098033473347  1.41119780638064
 6 -4.01428551575157  2.41493950995100  2.49525475127513
 6 -3.81209174637464  3.59300938343834  3.27597654205421
 6 -4.60171592729273  4.54047251275127  2.63226911111111
 6 -5.27185654805481  3.98824350085008  1.58476362826283
 6 -2.95097372227223  3.71828891259126  4.40118398889889
 6 -4.63739643964396  5.98421845604561  2.89541497829783
 8 -4.03102558985899  6.52566739693969  3.86753072557256
 7 -6.81752340194019  2.65936386888689 -0.72289495719572
 6 -6.78453065086509  4.00157056255626 -0.44888309140914
 6 -7.83542868306831  4.70129118591859 -1.17862067116712
 6 -8.42136516931693  3.68166729682968 -2.08038259065907
 6 -7.71327513901390  2.40867904200420 -1.74037780758076
 6 -8.17918019671967  6.10188155785579 -1.34090522512251
 6 -9.54026050445045  3.86294723302330 -3.17221977057706
 6 -8.92629160986099  4.03089445254525 -4.60267351405141
 7 -6.32278804610461 -0.08908408860886 -1.24824584498450
 6 -7.25359896659666 -0.05164607020702 -2.17013293589359
 6 -7.44980809740974 -1.37224237693769 -2.75647867246725
 6 -6.64800028372837 -2.19388316161616 -2.00981019091909
 6 -5.94858278177818 -1.43381741124112 -1.04658252295230
 6 -8.41391676637664 -1.56705649424942 -3.86827774717472
 6 -6.20210383748375 -3.60912001800180 -1.94717011091109
 8 -6.55622886348635 -4.53564853495350 -2.61850209590959
 6 -5.13796404990499 -3.53482524922492 -0.86962358315832
 6 -5.33767089468947 -4.63834903650365  0.21356850785079
 8 -5.71627581018102 -4.46543247664767  1.32667978827883
 8 -4.89838980218022 -5.89506339043904 -0.31598576997700
 6 -5.33648699789979 -7.00691428252825  0.51548908370837
 6  2.30963764536454 -5.07377363756376  0.63710169146915
 6  3.49569287938794 -4.20996249554955  0.96033731953195
 6  4.06083518721872 -3.28361818271827  0.11552392739274
 6  3.67644254155416 -3.19436262466247 -1.37776544534453
 6  5.08675288128813 -2.49445371357136  0.59054090499050
 6  6.42266787148715 -2.83829878287829 -0.00719039313931
 6  7.52275140184018 -1.89733137893789  0.44045788038804
 6  8.99268787728773 -2.00462644464446 -0.16951366456646
 6  9.58540562066207 -3.36481638413841  0.26207933293329
 6  9.86333176877688 -0.87606822772277  0.31038900230023
 6  11.31975513281328 -0.93116591169117 -0.23541885248525
 6  12.16571419201920  0.26097528802880  0.10618140634063
 6  13.63667306140614  0.42465215211521 -0.65442519971997
 6  14.51611978497850 -0.75319604960496 -0.50059674487449
 6  14.26707664586459  1.69997476967697 -0.12502014441444
 6  15.47879716061606  2.22203413871387 -1.01123823152315
 6  15.98841846154615  3.61551406140614 -0.55219631263126
 6  17.28467286198620  3.89642855835584 -1.41008205600560
 6  17.03859284138414  4.06253181588159 -2.83336565656566
 6  17.77031045024502  5.40387851385139 -0.79081003800380
 1 -2.78816432233223  1.26935379897990  3.74497210841084
 1 -6.33564444734473  5.63815001720172  0.85063482618262
 1 -8.44130933003300  1.23110737223722 -3.27584296519652
 1 -3.76380344554455 -3.31280439713971  1.71187692979298
 1 -1.93724481048105 -1.50546815501550  3.03582574857486
 1 -3.46078540374037 -2.70243682458246  4.53749369526953
 1 -3.58314491459146 -0.91837395509551  4.90682681858186
 1 -4.90707238303830 -1.85260317831783  3.88387160976098
 1 -2.25774293989399 -3.25772881788179 -0.21751948654865
 1 -1.63979467916792 -1.56388501590159  0.36836767806781
 1 -0.66461085118512 -3.05007497979798  2.47908244934493
 1 -1.16000547914792 -4.47055389168917  1.89369840654065
 1 -2.04358301040104  3.44691937863786  4.13833621472147
 1 -3.01433908790879  4.77669730883088  4.71487715061506
 1 -3.26609654215421  3.03950714481448  5.28678565536554
 1 -5.34218807810781  6.73538152065206  2.40556267206721
 1 -10.29632361486149  3.20018717061706 -3.19378053265326
 1 -10.26050353325333  4.90332786728673 -2.85349834243424
 1 -9.79347510841084  4.04516241624162 -5.43324963556356
 1 -8.17631159715972  4.80977291789179 -4.64171385318532
 1 -8.28762903780378  3.00328464236424 -4.86446056075608
 1 -8.04122070367037 -1.00720397809781 -4.76260622962296
 1 -8.37875750365036 -2.65625268556856 -4.16228557245724
 1 -9.36914016311631 -1.35389202380238 -3.57058134323432
 1 -4.16256803280328 -3.66945276827683 -1.44706963706371
 1  2.47576552035204 -5.98373566666667  1.28189657755776
 1  2.27546087268727 -5.26637516391639 -0.34968040314031
 1  4.11633761616162 -4.35853597589759  1.97359572367237
 1  2.49517696959696 -3.29875143004300 -1.25125777587759
 1  3.92762010001000 -2.10983568416842 -1.82878109560956
 1  4.21721422882288 -3.97960981728173 -1.84109556685669
 1  4.85332920192019 -1.50485603020302  0.18492888398840
 1  5.20521287968797 -2.14146846404641  1.53969785608561
 1  6.55860508050805 -3.89853415291529  0.20086940864086
 1  6.46890573007301 -2.85592780878088 -1.13286297249725
 1  7.09085988758876 -1.05702225652565  0.40357911121112
 1  7.52553146334633 -2.02786103460346  1.43905137753775
 1  8.95110100970097 -1.97165520622062 -1.31002922162216
 1  8.99414157955796 -4.39883874377438  0.19439696949695
 1  10.57535056445644 -3.52627598229823 -0.21075865776578
 1  9.71456820442044 -3.38777450605061  1.33907487048705
 1  9.44349541044104  0.09975838623862 -0.00294111971197
 1  9.92052101070107 -1.03191151045105  1.42607354465447
 1  11.80871280238024 -1.99358668036804 -0.09935924372437
 1  11.13115905610561 -0.96702833833383 -1.33443428712871
 1  11.56825684378438  1.17571064286429 -0.00986819721972
 1  12.37143790249025  0.17468875217522  1.26965614071407
 1  13.39238998129813  0.62978772157216 -1.78530473527353
 1  14.89706993419342 -0.55388840614061  0.61593669116912
 1  13.95453584008401 -1.64559773867387 -0.55783203730373
 1  15.31984184068407 -0.54442777047705 -1.33946634963496
 1  13.53730297589759  2.43685198439844 -0.04983486078608
 1  14.34432204440444  1.51853826832683  0.84455328262826
 1  16.32885161226123  1.56556201770177 -0.90981879687969
 1  15.30292508800880  2.40651890329033 -2.02900643154315
 1  15.21867332943294  4.36030923862386 -0.80087136713671
 1  16.24700433433343  3.87910386978698  0.71950440924092
 1  18.09750956775678  3.25382889138914 -0.99757414531453
 1  16.11814895169517  4.53222050095010 -3.11143542244224
 1  17.81031342124212  4.59498589178918 -3.29929736333633
 1  17.02940762606261  2.91194610581058 -3.25164571777178
 1  18.09405727972797  5.19555020802080  0.17520668636864
 1  18.63502111291129  5.56325255175518 -1.45876801790179
 1  17.03877644744475  6.21741615171517 -0.79716806890689
 1 -5.37597548214821 -7.87211831123112 -0.15089940594059
 1 -6.43627411871187 -6.99116849824983  0.55841568486849
 1 -4.77632985038504 -7.14105398159816  1.51493436183618
 8 -7.74093698899890  7.02818284968497 -0.57897132553255
 1 -8.79252263606361  6.37897531323132 -2.08694716221622

