%nproc=3
%Mem=2GB
# td=(NStates=1) iop(3/107=0140000000,3/108=0140000000) iop(3/107=0140000000,3/108=0140000000) CAM-B3LYP/6-31G(d,p) 

TD

0 1
12 -5.68601433263326  1.13383341104110  0.21306397519752
 6 -4.95008513031303 -2.11566553125313 -0.38497156225623
 6 -3.35851731163116  1.18584112561256  2.73044448264826
 6 -6.25922234453445  4.54683270637064  0.71166352755276
 6 -8.04418533653365  1.19488817121712 -2.36462055595560
 7 -4.37672475697570 -0.30655657875788  0.97309747674767
 6 -4.18844406480648 -1.65217639903990  0.63739745824582
 6 -3.28853025472547 -2.35664686328633  1.38626421502150
 6 -2.83177733313331 -1.31788245794579  2.57821460806081
 6 -3.52642944294429 -0.06669582218222  2.00719137773777
 6 -3.36058816681668 -1.72443913651365  3.95171303070307
 6 -2.00015485878588 -2.83676766996700  0.62210639673967
 6 -0.97730549344934 -3.68648373627363  1.41513539043904
 6  0.33067893529353 -3.94404927702770  0.68919708080808
 8  0.61031488538854 -3.35191488028803 -0.40122013741374
 8  1.06140782298230 -4.89280442524252  1.27278326682668
 7 -4.91451000200020  2.61458169486949  1.41766845344534
 6 -4.06507059425943  2.37161517751775  2.49150437623762
 6 -3.81419195639564  3.61647172967297  3.21208015241524
 6 -4.53513926962696  4.63427189268927  2.55705158935894
 6 -5.29827919031903  3.93970864736474  1.48996414831483
 6 -2.85861448634863  3.73344042774277  4.37597146764676
 6 -4.58032073207321  6.06437647184719  2.97298273507351
 8 -3.88969145644564  6.60015484568457  3.86774074657466
 7 -6.85872752235224  2.67144507700770 -0.73723639133913
 6 -6.98188038583858  3.94652505800580 -0.30941914501450
 6 -7.97892303250325  4.67469852665267 -1.17264007310731
 6 -8.46464949774978  3.72968209830983 -2.07599215161516
 6 -7.85112892439244  2.48991716581658 -1.69193296309631
 6 -8.37807008570857  6.04568593829383 -1.15603673827383
 6 -9.38463494189419  3.83916485478548 -3.15663821242124
 6 -8.85556453715372  3.92652401550155 -4.61800504720472
 7 -6.28987475477548 -0.08252343254325 -1.15713673407341
 6 -7.35145875257526 -0.05051595719572 -2.08849477207721
 6 -7.66400951755176 -1.33652880558056 -2.70197322192219
 6 -6.64373985768577 -2.13575734903490 -2.13325253515351
 6 -5.86477440094009 -1.41666569606961 -1.19716758145815
 6 -8.59266464116412 -1.61354114271427 -3.88469938933893
 6 -6.16310993809381 -3.49771887788779 -2.04689008290829
 8 -6.49463270387039 -4.45519048914892 -2.71543178887889
 6 -5.19186944044404 -3.56214798149815 -1.00435705650565
 6 -5.37164429202920 -4.57626282788279  0.04722187318732
 8 -5.76377055965597 -4.32481841524152  1.25038215851585
 8 -5.14501446464647 -5.78073195729573 -0.41877604900490
 6 -5.47402075127513 -6.82807639873987  0.51957949274928
 6  2.34666134773477 -5.11891815201520  0.69248723002300
 6  3.40706401650165 -4.13055455475548  1.14961624742474
 6  4.03863296699670 -3.25873569446945  0.31452382738274
 6  3.86266116341634 -3.27595078347835 -1.20020768956896
 6  5.13892809880988 -2.45742001020102  0.82026387728773
 6  6.56999260396040 -2.80315526852685  0.21423174907491
 6  7.60836996369637 -1.78169981578158  0.72731656625663
 6  8.95653426192619 -1.97232321432143  0.03148643544354
 6  9.61332841294129 -3.39886978947895  0.25095822082208
 6  9.99189462506251 -0.82601322222222  0.52749071247125
 6  11.40077323462346 -0.73500629572957 -0.19647495809581
 6  12.32135975657566  0.40459965046505  0.07417820602060
 6  13.65270466456646  0.45779546644664 -0.63543330053005
 6  14.43260143314332 -0.89721045104510 -0.28571525672567
 6  14.34822476067607  1.71183595579558 -0.24401204360436
 6  15.56153543444344  2.16360829612961 -1.09241634933493
 6  16.05861548124812  3.46132864286429 -0.80618171117112
 6  17.35940033473347  3.92178109360936 -1.50352139993999
 6  17.20183916601660  4.20855641834183 -3.03461578157816
 6  17.80191361056105  5.24301242724272 -0.77776873387339
 1 -2.69859536543654  0.98233509710971  3.64997260846085
 1 -6.76963784668467  5.51350755295530  0.87457722042204
 1 -8.93653885298530  1.07938219971997 -3.07455283618362
 1 -3.87096416161616 -3.13869698639864  1.93750949304931
 1 -1.67978906490649 -1.16056366456646  2.62446461246125
 1 -2.71021034623462 -2.44438101900190  4.18177812371237
 1 -3.33553015311531 -1.04443656135614  4.74119025492549
 1 -4.52300397619762 -2.06888480648065  3.84495771837184
 1 -2.32901006660666 -3.43824686968697 -0.23104083868387
 1 -1.32156285598560 -2.00597922532253  0.23699454075408
 1 -1.03030742084208 -3.01181115341534  2.33364790589059
 1 -1.26333581218122 -4.62426926322632  1.84958399509951
 1 -1.80243889598960  3.45365005170517  3.88697107820782
 1 -2.86099375337534  4.76771641074107  4.79580524342434
 1 -2.97240717321732  2.94720791489149  5.17173415021502
 1 -5.19543340264026  6.68431641414141  2.34156627242724
 1 -10.08137211971197  3.03084023592359 -3.10525167976798
 1 -10.10032751565157  4.44086162066207 -3.01569456205621
 1 -9.79630539143914  4.19527742774277 -5.26933324392439
 1 -8.23037700370037  4.81705364596460 -4.58957863966397
 1 -8.29180945584558  2.97724203810381 -4.96853096779678
 1 -8.50034661626163 -0.93029628732873 -4.80590055905590
 1 -8.52520214811481 -2.69686674697470 -4.06609595349535
 1 -9.62783603270327 -1.32982961756176 -3.54799908500850
 1 -4.20229200520052 -3.89113493649365 -1.27801273137314
 1  2.51768971277128 -6.33320061316132  1.04153254115412
 1  2.20513383998400 -4.92457098349835 -0.61868730383038
 1  3.62967895029503 -4.16906702900290  2.21183954805481
 1  2.93977142904290 -3.81618317321732 -1.60966361646165
 1  3.87300463846385 -2.28445314591459 -1.53214143164316
 1  4.49362186958696 -3.79406126242624 -1.95531698899890
 1  4.83938780778078 -1.35092063666367  0.79835022612261
 1  5.08484084248425 -2.48234255145515  1.97881176747675
 1  6.68165738573857 -3.79431373087309  0.56792611431143
 1  6.56974581408141 -2.78095031103110 -0.94206389258926
 1  7.26912771437144 -0.64333088738874  0.52820157345735
 1  7.80163907410741 -1.94730297879788  1.98194566696670
 1  8.81011691129113 -1.51598963966397 -1.06474469316932
 1  8.86486865226523 -4.13073193309331  0.26473400320032
 1  10.54827785718572 -3.66829018371837 -0.33987156905691
 1  10.28650539813981 -3.46026175477548  1.21636259925993
 1  9.39852091299130  0.24876328672867  0.57885706010601
 1  10.13971292989299 -0.98761708100810  1.45913685098510
 1  11.83959589068907 -1.58706602830283 -0.10866017381738
 1  11.33645958615862 -0.69873150865087 -1.35060590429043
 1  11.72916293439344  1.29742281408141 -0.13451066146615
 1  12.60495125382538  0.31923320662066  1.13130230533053
 1  13.59859060136013  0.56922166496650 -1.75414161896190
 1  14.66347657485749 -0.86975999329933  0.96061115861586
 1  14.06142652915292 -1.82376555545555 -0.58689494359436
 1  15.44271412791279 -0.91703503120312 -0.88214061706171
 1  13.52016126172617  2.50168846804681 -0.29123900120012
 1  14.40845845804581  1.74424083858386  0.88636746404640
 1  16.28297702480248  1.23879934143414 -1.13787160216022
 1  15.10833562906291  2.13316156755676 -1.99970350125013
 1  15.30841230333033  4.15431863956396 -1.12816409640964
 1  16.23570320422042  3.52826878627863  0.31887434623462
 1  18.09698951575158  3.10143365186519 -1.16025041294129
 1  16.17022415921592  4.86292357125713 -3.14861914081408
 1  18.13334572447244  4.51065745894589 -3.61594902850285
 1  16.97866255155515  3.29678458965897 -3.74631518471847
 1  17.85022289628963  5.03586423942394  0.25921508720872
 1  18.73639124992499  5.74932115861586 -1.16304844594459
 1  16.99155172497250  5.99026343644365 -0.73753210531053
 1 -5.19997788238824 -7.73441454085409  0.13116880088009
 1 -6.59959045034503 -6.95072445384539  0.84474431773177
 1 -4.84838705610561 -6.63158303450345  1.55256812521252
 8 -7.93518641394139  6.86283631503150 -0.37352078047805
 1 -9.21030441424142  6.25321273697370 -1.82390085758576

