%nproc=3
%Mem=2GB
# td=(NStates=1) iop(3/107=0140000000,3/108=0140000000) iop(3/107=0140000000,3/108=0140000000) CAM-B3LYP/6-31G(d,p) 

TD

0 1
12 -5.58045377657766  1.22341236893689  0.12278494729473
 6 -4.97537765956596 -2.12009597429743 -0.38878194329433
 6 -3.44942640254025  1.16374891639164  2.86197763596360
 6 -6.10449687198720  4.52601062416242  0.67435979717972
 6 -7.90854177217722  1.18871755415542 -2.36663075697570
 7 -4.36063314781478 -0.26391231433143  1.02530269726973
 6 -4.14708992939294 -1.61914309570957  0.57952167066707
 6 -3.25784718641864 -2.36610780938094  1.47256284488449
 6 -2.95481963736374 -1.40352102180218  2.57583437003700
 6 -3.58791559155916 -0.06488564116412  2.19260991959196
 6 -3.46516862486249 -1.73780047264726  4.01499935933593
 6 -1.97607245054505 -2.71746573977398  0.70924511061106
 6 -1.11626938983898 -3.76576166406641  1.43630750765076
 6  0.21873774117412 -3.97468234033403  0.65974413551355
 8  0.45345919981998 -3.45910559935994 -0.46855687108711
 8  0.98768045024502 -4.69838498329833  1.40531652015202
 7 -5.02973152415241  2.55442567926793  1.57368405500550
 6 -4.08154224142414  2.36149416541654  2.58551377717772
 6 -3.66636717391739  3.69782986548655  3.17225617001700
 6 -4.43666942264226  4.66859532503250  2.47514339853985
 6 -5.25289465186519  3.95141981848185  1.53142829472947
 6 -2.64924354925493  3.91085816951695  4.24588845934593
 6 -4.47074977497750  6.07151718591859  2.80028546534653
 8 -3.83479596689669  6.60707553775378  3.74136810931093
 7 -6.79978162776278  2.67462539503950 -0.68805147284728
 6 -6.91504370217022  3.92165257075708 -0.30651885498550
 6 -7.86484162436244  4.60451150795080 -1.17553036213621
 6 -8.45046807960796  3.75762489258926 -2.07040159255926
 6 -7.72749656115612  2.41641981608161 -1.74111788158816
 6 -8.31307358605861  5.94823619331933 -1.18628976357636
 6 -9.56972345074507  3.77707864616462 -3.14946749534954
 6 -8.86943592429243  3.84718608170817 -4.58263150985098
 7 -6.35208097539754 -0.14277945814581 -1.12675369576958
 6 -7.24566817351735 -0.04901580718072 -2.11282720532053
 6 -7.51437455405541 -1.30383553625363 -2.64343736833683
 6 -6.61194667836784 -2.17477125042504 -2.06326553645365
 6 -5.82228015151515 -1.41273530303030 -1.22634049874988
 6 -8.60876625132513 -1.60871065966597 -3.78004892429243
 6 -6.29681330843084 -3.58711781778178 -2.06131152505250
 8 -6.76941018161816 -4.53952892299230 -2.59616986268627
 6 -5.06522677617762 -3.57405917261726 -0.95212183298330
 6 -5.27729485708571 -4.65933113471347  0.11149830083008
 8 -5.74686886948695 -4.48821475487549  1.15662278257826
 8 -4.84353431663166 -5.90097398149815 -0.40147431883188
 6 -5.29540288948895 -6.99016260736074  0.42268980378038
 6  2.35350203180318 -4.88910517071707  0.68243622492249
 6  3.40524383448345 -3.86954845414541  1.05420670647065
 6  4.01889099279928 -3.10737055795580  0.19260163516352
 6  3.62467736503650 -2.92715590399040 -1.18336600540054
 6  5.08671287728773 -2.32038630683068  0.72985483638364
 6  6.43601920662066 -2.74373932693269  0.02171249714972
 6  7.58764789148915 -1.85629727552755  0.51553538813881
 6  8.99394800330033 -2.12179816181618 -0.09563627682768
 6  9.61347842794279 -3.45767567006701  0.15681880688069
 6  9.97751318691869 -0.80767138803880  0.37171513491349
 6  11.29781293859386 -0.86283907900790 -0.28113342394239
 6  12.19200682128213  0.28178736923692  0.08870965916592
 6  13.62527192129213  0.54155384228423 -0.68388814601460
 6  14.46002417541754 -0.72591332133213 -0.27639432463246
 6  14.26467640584058  1.79287405960596 -0.12764040644064
 6  15.49473875477548  2.07212914821482 -0.91644875257526
 6  15.98883850355035  3.50909341934193 -0.63884497749775
 6  17.26644103880388  3.93509242474247 -1.31389243704370
 6  17.07832681478148  3.97058262096210 -2.88321064106411
 6  17.79899331853185  5.23840196619662 -0.76368732573257
 1 -2.71566707260726  1.18338520212021  3.65231284248425
 1 -6.15944682758276  5.63980018221822  0.75616537923792
 1 -8.49862506160616  1.14251851335133 -3.18899428032803
 1 -3.67443450865087 -3.23038615531553  1.80004574667467
 1 -1.83386447244724 -1.32316992519252  2.73905607160716
 1 -2.97069639483948 -2.73084966586659  4.42433237913791
 1 -3.24832143224322 -1.00491260896090  4.63625976187619
 1 -4.54037571337134 -2.09198711671167  3.94260748334833
 1 -2.27104427002700 -3.03567661266127 -0.21275901050105
 1 -1.30567126682668 -1.76621524892489  0.79353019431943
 1 -0.74224861496150 -3.32503247554755  2.27566210731073
 1 -1.59710918951895 -4.75047188348835  1.15493453015302
 1 -1.60637929002900  4.00348503520352  3.71066344744474
 1 -2.75330298429843  4.97306694579458  4.56834249714971
 1 -2.74773470597060  3.01740493459346  5.00974795159516
 1 -5.06655051435143  6.62189017151715  2.17226934273427
 1 -9.95055903840384  2.66531368326833 -3.09064021862186
 1 -10.22927040994100  4.51329886438644 -2.97170016261626
 1 -9.55494125502550  3.88518641864186 -5.42166847744774
 1 -8.24547851385138  4.76400834143414 -4.50118980078008
 1 -8.23088336323632  3.04532884678468 -4.70290440514051
 1 -8.49552613421342 -0.99224248194819 -4.64338430743074
 1 -8.27116674457446 -2.73988104840484 -3.90654999889989
 1 -9.76521977107711 -1.48164479907991 -3.39768405350535
 1 -4.20490226622662 -3.90265608860886 -1.55384031413141
 1  2.64277222102210 -5.84076136923692  1.10028841674167
 1  2.21882520912091 -4.79858838523852 -0.42144757985799
 1  3.65689167156716 -3.95482560486049  2.05688405250525
 1  2.53444089598960 -2.96106766166617 -1.57843049314932
 1  3.85353269126913 -1.84294899549955 -1.37433565106511
 1  4.24544705210521 -3.54426628292829 -2.00494195149515
 1  4.83406727572757 -1.17517306190619  0.47958834993499
 1  5.17370972937294 -2.36323064026403  1.71581546784678
 1  6.79836905690569 -3.66827112661266  0.02705202690269
 1  6.29384822432243 -2.61052326832683 -1.08203788998900
 1  7.15612641424142 -0.89392594689469  0.32674142744274
 1  7.60269918011801 -2.03629187768777  1.56309378177818
 1  8.59957585718572 -1.84730277097710 -1.14907312601260
 1  8.83494565996600 -4.19048790869087 -0.15138760896090
 1  10.56476950635063 -3.53756711141114 -0.24914249614962
 1  9.64751149874987 -3.85423115171517  1.28388935193519
 1  9.23794485538554 -0.05933752335234  0.02367154155416
 1  9.96159511811181 -0.84872319161916  1.63305424272427
 1  11.86766869796980 -1.77357467916792 -0.11670097789779
 1  11.16959289948995 -0.85062669816982 -1.43325416911691
 1  11.63995401350135  1.19062213401340  0.14254704430443
 1  12.48231899059906  0.28674995829583  1.19316849194919
 1  13.60564130643064  0.64838958175818 -1.87900410521052
 1  14.74172439963997 -0.91182419971997  0.80483558105811
 1  13.95434582108211 -1.54081726062606 -0.74744099819982
 1  15.32600245674567 -0.54594792249225 -0.87801020402040
 1  13.36995624122412  2.39443774297430 -0.31368124542454
 1  14.57585519771977  1.73191960646065  0.99845867316732
 1  16.35671439853985  1.49365482698270 -0.56929474447445
 1  15.24370916641664  1.84720297169717 -2.05537906880688
 1  15.11020248234823  4.41179438713871 -0.68618989898990
 1  16.15199483338334  3.49057501690169  0.46755921472147
 1  17.82024184098410  2.92840634913491 -1.20300468836884
 1  16.28153529032903  4.78699597849785 -3.16995127402740
 1  18.00130252015201  4.25903229642964 -3.31817925152515
 1  16.85389007430743  2.87864277547755 -3.32250280348035
 1  18.18575644964496  5.14251490449045  0.38922808850885
 1  18.67727533833383  5.55310153665367 -1.21274341544154
 1  17.04377694749475  6.04286869696970 -0.83905225732573
 1 -4.99911779637964 -8.08052915231523 -0.12587690369037
 1 -6.45443593489349 -6.95365474687469  0.43483332663266
 1 -4.74243646104610 -6.88022789898990  1.28222109050905
 8 -7.88711160646065  6.84159419081908 -0.29959338773877
 1 -8.87713109690969  6.32107952365237 -1.94747321482148

