%nproc=3
%Mem=2GB
# td=(NStates=1) iop(3/107=0140000000,3/108=0140000000) iop(3/107=0140000000,3/108=0140000000) CAM-B3LYP/6-31G(d,p) 

TD

0 1
12 -5.67400313151315  1.21428145584558  0.21135380418042
 6 -4.94538466026603 -2.15128909360936 -0.39903296839684
 6 -3.31888334823482  1.14540708220822  2.73444488268827
 6 -6.26901332363236  4.66759478257826  0.60267262846285
 6 -8.08498941694169  1.15108379077908 -2.26549064296430
 7 -4.32674975947595 -0.23965988908891  0.98042820982098
 6 -4.12021724212421 -1.61362254365437  0.57311102960296
 6 -3.21812321402140 -2.28178937753775  1.46659224782478
 6 -2.86998115351535 -1.30282095179518  2.67191397799780
 6 -3.58274507450745 -0.07749690229023  2.11611226982698
 6 -3.52150425842584 -1.77657435003500  4.02056991639164
 6 -1.96713155645565 -2.67372136533653  0.71405559165917
 6 -1.03765152805281 -3.74478956685669  1.40101397829783
 6  0.18507437483748 -4.02193706580658  0.66361452255226
 8  0.57172102600260 -3.57144683348335 -0.42794280968097
 8  1.05699738193819 -4.81803694849485  1.39650563906391
 7 -4.98926747774777  2.67019725642564  1.42640932753275
 6 -3.90736482368237  2.43309132513251  2.42522774857486
 6 -3.83836437363736  3.68850893339334  3.18723766816682
 6 -4.63734949064906  4.63189165466547  2.62200808500850
 6 -5.30984034643464  3.91295597209721  1.45274042594259
 6 -2.85741436633663  3.86815389908991  4.36911078157816
 6 -4.70385308530853  6.04648468266827  2.93245868266827
 8 -4.08056054335434  6.68240307050705  3.82857683018302
 7 -6.84800645024502  2.61489942244224 -0.65019768746875
 6 -7.00822302010201  3.97462786828683 -0.30804900800080
 6 -8.05360050025003  4.64248530533053 -1.17194000310031
 6 -8.39105213801380  3.70032916301630 -2.02312686508651
 6 -7.81047485898590  2.35353352745275 -1.65771954175418
 6 -8.31036331503150  6.06398776847685 -1.17292842744274
 6 -9.43353983238324  3.73296423472347 -3.13633618221822
 6 -8.90163914461446  3.74289565266527 -4.53298654535454
 7 -6.42432820012001 -0.18050323052305 -1.07888890929093
 6 -7.34650825752575 -0.03358426402640 -2.07062298489849
 6 -7.60424354095410 -1.33049820252025 -2.72356538113811
 6 -6.64471995569557 -2.20039381268127 -1.99489869976998
 6 -5.98784670817082 -1.39478350785079 -1.10389825452545
 6 -8.51153652835283 -1.60780056865687 -3.80324124352435
 6 -6.18293192029203 -3.53727283328333 -2.03691908580858
 8 -6.53545678627863 -4.53679864996500 -2.57447769346935
 6 -5.00842109560956 -3.52683445014501 -0.95385200600060
 6 -5.18053518111811 -4.64033923552355  0.04277142814281
 8 -5.57295147774777 -4.47902383578358  1.22772989328933
 8 -4.86100606380638 -5.79906379047905 -0.36497066846685
 6 -5.22749609880988 -6.87910150125012  0.33559109390939
 6  2.41887856945695 -5.10172643284328  0.76403438473847
 6  3.44638794889489 -4.03508500780078  1.09699098489849
 6  3.99771887558756 -3.12623244414441  0.14324669966997
 6  3.55217011431143 -3.16819000740074 -1.32183985278528
 6  5.10392459845985 -2.16055032323232  0.57103895479548
 6  6.44031963666367 -2.63520847384738 -0.05516519061906
 6  7.65063419011901 -1.69191083688369  0.42035587018702
 6  8.93352196069607 -1.91618760076008 -0.14477119031903
 6  9.48671575167517 -3.38672857535754 -0.00213708870887
 6  9.98516395199520 -0.88675929682968  0.29980794419442
 6  11.33777693499350 -0.95242803790379 -0.29279459005901
 6  12.22943056365636  0.22987217771777  0.13788457665767
 6  13.64899429352935  0.40714040094009 -0.53067282448245
 6  14.61653982698270 -0.72595332533253 -0.20322700790079
 6  14.22167210541054  1.77025179737974 -0.17207484988499
 6  15.47958723962396  2.14372630793079 -0.89735684338434
 6  15.99874949464946  3.47732024202420 -0.55316640964096
 6  17.34539893459346  3.80049896539654 -1.33495454325433
 6  17.14624360646065  3.92602816551655 -2.90007232723272
 6  17.98620203940394  5.17144527052705 -0.83210416741674
 1 -2.77901340724072  1.11620848444845  3.57798540974097
 1 -6.27833871677168  5.90678688088809  0.74874463716372
 1 -8.63684888398840  1.03667792929293 -3.05400078097810
 1 -3.85391245644565 -3.07594071077108  1.94141988408841
 1 -1.83894498049805 -1.19309691789179  2.89808197419742
 1 -2.94881420662066 -2.59601618251825  4.36215616151615
 1 -3.46143274337434 -0.99089120682068  4.81305744164416
 1 -4.65811748754875 -2.07728564656466  3.76761998459846
 1 -2.38800596619662 -3.02920596559656 -0.22470020462046
 1 -1.31329202890289 -1.81073970137014  0.50138097939794
 1 -0.55518990909091 -3.57290726302630  2.47081162226223
 1 -1.89212869146915 -4.66778361466147  1.48621765846585
 1 -1.88128678077808  3.42752743944394  4.11786416751675
 1 -2.65912356635664  4.95408504760476  4.54464012691269
 1 -3.28621855435544  3.24763795789579  5.21155813261326
 1 -5.26144000330033  6.78876685918592  2.13583569936994
 1 -10.21255523802380  2.97452460436044 -3.10377153175318
 1 -10.10429791269127  4.63799133363336 -2.74602759535954
 1 -9.66013177407741  3.82625052505250 -5.24892120272027
 1 -8.39461342734273  4.73252519311931 -4.73029271107111
 1 -8.16573684858486  2.97741205510551 -4.61862597729773
 1 -8.41228781038104 -1.31643490119012 -4.91435140414041
 1 -8.70787041494149 -2.69362642294229 -3.68392773667367
 1 -9.61176442554255 -1.24268090269027 -3.74761904700470
 1 -4.12097387338734 -3.94951077407741 -1.54345927602760
 1  2.73413135693569 -6.16788408150815  0.98916730463046
 1  2.00593391999200 -5.29064759115912 -0.37798323342334
 1  3.73216919931993 -3.91631175347535  2.07663602770277
 1  2.55444289618962 -3.58166972187219 -1.62004465456546
 1  3.69562690069007 -2.17028172877288 -1.45559377687769
 1  4.38362086948695 -3.64817667396740 -1.99115057235724
 1  4.85335920492049 -1.23939948454845  0.21018140924092
 1  5.18738109650965 -2.25454977217722  1.79850373667367
 1  6.60726994699470 -3.56542084158416  0.03959328102810
 1  6.57614645414541 -2.55259747574758 -1.14620430663066
 1  7.28127892949295 -0.67559411371137  0.09324807810781
 1  7.64371328152815 -1.81261951045104  1.41512898529853
 1  8.95168106770677 -1.43768180888089 -1.16376459515952
 1  8.69865203060306 -4.20401926182618 -0.51886435663566
 1  10.59012204160416 -3.62997635233523 -0.41614919681968
 1  9.52313906150615 -3.72446817541754  1.08130909390939
 1  9.62899396029603  0.12523093349335  0.31884105850585
 1  10.13396235483548 -0.98531685098510  1.46289722702270
 1  11.81140307140714 -1.83639096079608 -0.10588989678968
 1  11.11909784998500 -0.89083071857186 -1.34227507120712
 1  11.68114813291329  1.18133120492049  0.04287707730773
 1  12.60891164986499  0.02659394269427  1.38009718481848
 1  13.45631637393739  0.51732647544755 -1.69661586638664
 1  14.85095532273227 -0.75611862916292  0.98516361386139
 1  14.07564795129513 -1.75520869976998 -0.48659491359136
 1  15.67033689018902 -0.55033836153615 -0.81876427942794
 1  13.48160740634063  2.44642294149415 -0.31890176747675
 1  14.34401201340134  1.92614902940294  0.85353418071807
 1  16.29524825192519  1.31537699919992 -0.87767558255826
 1  15.34052884838484  2.15018326972697 -1.96322985388539
 1  15.26953841594159  4.31868507620762 -0.61051233123312
 1  16.30423005690569  3.41008696809681  0.48994145294529
 1  18.10812062886289  2.96908041654165 -1.15905029292929
 1  16.32285942274227  4.56781406030603 -3.21034531343134
 1  18.15926831673167  4.35770216341634 -3.31596903050305
 1  16.96871155645564  2.88830374157416 -3.31525207840784
 1  17.88379625362536  5.05069572257226  0.32652181788179
 1  18.95634324512451  5.35122134863486 -1.15566770787079
 1  17.51660423022302  6.10164457455746 -0.88134648674867
 1 -4.76196408100810 -7.85924702410241 -0.19175349134913
 1 -6.35260575187519 -6.95879526092609  0.52063190649065
 1 -4.62332454985499 -7.25788566476648  1.35551842024202
 8 -7.77815071037104  7.03393342474247 -0.49907333573357
 1 -9.03129651345134  6.40875829152915 -1.94300276777678

