%nproc=3
%Mem=2GB
# td=(NStates=1) iop(3/107=0140000000,3/108=0140000000) iop(3/107=0140000000,3/108=0140000000) CAM-B3LYP/6-31G(d,p) 

TD

0 1
12 -5.68144387558756  1.27753778147815  0.26473914271427
 6 -4.92376249804980 -2.10046401110111 -0.43709677477748
 6 -3.47438889878988  1.14600714221422  2.91358279647965
 6 -6.18008443074307  4.52115013811381  0.59946230743074
 6 -8.00340125812581  1.20184886728673 -2.29537363126313
 7 -4.26305338983898 -0.24218014111411  0.98916908390839
 6 -4.23603882428243 -1.54649583098310  0.60346406490649
 6 -3.33456485818582 -2.26526772537254  1.45368095669567
 6 -3.02708686408641 -1.32227289698970  2.66275306190619
 6 -3.70609740974097 -0.07118627122712  2.18611927052705
 6 -3.38037014501450 -1.81852854545455  4.10915877527753
 6 -1.99312415571557 -2.68187218041804  0.71785597169717
 6 -1.02388015091509 -3.58393348124812  1.41346522342234
 6  0.23331919931993 -3.93738861096110  0.71765992709271
 8  0.65377923182318 -3.48643833263326 -0.29266928232823
 8  1.07921960416042 -4.81466661146115  1.40060604910491
 7 -4.96314486548655  2.63999423612361  1.54136082268227
 6 -4.05807989518952  2.37717573357336  2.56732195799580
 6 -3.81932246944694  3.67307739023902  3.18408735313531
 6 -4.59599535523552  4.59266773227323  2.60306619081908
 6 -5.26776613901390  3.94646932343234  1.51158631053105
 6 -2.95661428632863  3.80365744944494  4.46537040754075
 6 -4.82189488948895  5.97537757195720  3.01408684548455
 8 -4.21572405970597  6.52559738993899  3.99626359885989
 7 -6.90203185278528  2.61768970147015 -0.67928059575958
 6 -6.93096529432943  3.93576398189819 -0.39995819891989
 6 -7.84881002120212  4.65955701250125 -1.25181799089909
 6 -8.40342337513751  3.67263639373937 -2.06456100850085
 6 -7.76108992049205  2.41525970007001 -1.76850061986199
 6 -8.17832011071107  6.01679304900490 -1.38015915051505
 6 -9.36307278567857  3.81351228952895 -3.22044459305931
 6 -8.78454743544354  3.96871823492349 -4.61056430313031
 7 -6.42998876617662 -0.16915209540954 -1.05384640504050
 6 -7.45071867856786 -0.01744264986499 -1.99674559715972
 6 -7.54088720532053 -1.33125827852785 -2.75303832843284
 6 -6.63212869656966 -2.14747852115212 -2.07648685858586
 6 -5.95325324882488 -1.41253528302830 -1.12753061776178
 6 -8.55875124982498 -1.60661044964496 -3.75578649804981
 6 -6.14207783488349 -3.62995210121012 -2.13034842874287
 8 -6.37973121372137 -4.57210218031803 -2.78046829252925
 6 -4.95594584808481 -3.53964573127313 -0.92084870567057
 6 -5.18782591019102 -4.62398760036004  0.13194034503450
 8 -5.56195037763776 -4.39104503790379  1.19760688098810
 8 -5.05151511471147 -5.86707059115912 -0.41529570097010
 6 -5.44892824202420 -6.87297088818882  0.44727226202620
 6  2.29952663426343 -5.04589084928493  0.71799978127813
 6  3.40507381748175 -4.12047354665467  1.11571285708571
 6  3.94546365006501 -3.25187500840084  0.27908028302830
 6  3.68583348064806 -3.01456464486449 -1.23633130193019
 6  5.23610781678168 -2.41738600680068  0.73453530443044
 6  6.59999560426043 -2.60745569856986 -0.04167384148415
 6  7.67086621332133 -1.79936158195820  0.53436727132713
 6  9.02149075757576 -1.95618160016002 -0.09708642184218
 6  9.49710679077908 -3.45966586908691 -0.04327120212021
 6  9.97656309190919 -0.96583720462046  0.42182014541454
 6  11.29758291559156 -0.80677347244724 -0.40329564016402
 6  12.25511313191319  0.30954014451445  0.19985077327733
 6  13.55214460856086  0.42784247114711 -0.63735349254925
 6  14.42670084308431 -0.74986571657166 -0.39596628182818
 6  14.17862780098010  1.73427820002000 -0.21211885428543
 6  15.44678395929593  2.16795873117312 -1.05050215791579
 6  15.97625724542454  3.45216772677268 -0.64894598759876
 6  17.28782317701770  3.92248116361636 -1.42526357415742
 6  17.08179716181618  4.03302886558656 -2.92144446444644
 6  18.00619403860386  5.15310343634363 -0.83333429042904
 1 -2.82498800470047  1.05114197779778  3.65252286348635
 1 -6.31440232313231  5.70920712291229  0.82578234093409
 1 -8.68071327042704  0.98978323982398 -3.22618799969997
 1 -3.60462752795279 -2.88531164786479  2.07380312241224
 1 -1.94558564456446 -1.15079268746875  2.79562172817282
 1 -2.63325265046505 -2.71159774067407  4.41234118001800
 1 -3.26847344744474 -0.99388150585058  4.88835497139714
 1 -4.43471514731473 -2.13772169016902  4.01653487608761
 1 -2.05608277387739 -3.12374541954195 -0.24667240184018
 1 -1.37048774847485 -1.82649127652765  0.15293613491349
 1 -0.68887327742774 -3.32550252255226  2.50271481258126
 1 -1.27687716631663 -4.56526336263626  1.64414345104510
 1 -1.83931258335834  3.39998468516852  4.38967134823482
 1 -2.80374802880288  4.84718435753575  4.70748641154115
 1 -3.37250718321832  3.25264845894589  5.14527150395039
 1 -5.73068692799280  6.56980496299630  2.45544766056606
 1 -9.98006198869887  2.87525467736774 -3.29837099169917
 1 -10.12437992089209  4.49258679317932 -3.01852484508451
 1 -9.56872263316332  4.33110101010101 -5.49367567816782
 1 -8.06117008300830  4.59662160276028 -4.79569925172517
 1 -8.35448572347235  3.03541785568557 -4.72356647134713
 1 -8.19587616921692 -1.00234349204920 -4.78708867786779
 1 -8.64086371427143 -2.73083014331433 -3.92094143804380
 1 -9.59008225732573 -1.21646828142814 -3.30376466156616
 1 -3.93828560456046 -3.80995681868187 -1.40040497059706
 1  2.42250019381938 -6.22318961206121  0.94172256015602
 1  2.30252357895790 -5.17253577997800 -0.37023245834583
 1  3.92717870027003 -4.00571069336934  2.15549391349135
 1  2.74192164406441 -3.44703625852585 -1.64679732983298
 1  3.83770110811081 -1.94539924052405 -1.50495871337134
 1  4.55000750815082 -3.63872572887289 -1.85321677897790
 1  5.05382925192519 -1.36574211881188  0.74006439753975
 1  5.36316867526753 -2.70868518571857  1.82490637693769
 1  6.84515373537354 -3.70350464996500  0.14747406910691
 1  6.47324616411641 -2.59984220022002 -1.19677936413641
 1  7.46243704530453 -0.74221077537754  0.31863061636164
 1  7.72007091729173 -2.07777602610261  1.67840531293129
 1  8.97148304790479 -1.91077911861186 -1.07312553125313
 1  8.75898806420642 -4.20180904080408 -0.46118858905891
 1  10.38783181258126 -3.58135148984899 -0.52354993689369
 1  9.83556030363036 -3.58227395599560  1.16048701170117
 1  9.67105816671667  0.10913932433243  0.47058623302330
 1  10.26276523512351 -1.08563688298830  1.45129606690669
 1  11.99815174627463 -1.88135545724572 -0.38002731053105
 1  11.08147408760876 -0.66045768126813 -1.48425926962696
 1  11.86096611471147  1.28283135493549  0.00667345694569
 1  12.54262502120212  0.22555383868387  1.24591376647665
 1  13.44822556485648  0.65622036483648 -1.84598080288029
 1  14.74500472767277 -0.68176119341934  0.59271436893689
 1  14.02745313181318 -1.59889306820682 -0.60798705280528
 1  15.40741059755976 -0.58225155285529 -0.99342174517452
 1  13.28883812941294  2.57073537273727 -0.05020489778978
 1  14.68037564976498  1.67821423592359  1.05413424072407
 1  16.32364109120912  1.29579504100410 -1.07908572357236
 1  15.03824862036203  2.24541279267927 -2.05891942284228
 1  15.19307076917692  4.28199140684068 -0.54938621862186
 1  16.36536617051705  3.60216617601760  0.51638409720972
 1  17.89651946874687  2.99493300180018 -1.25268965686569
 1  16.44308144494449  4.72710998989899 -3.10520479937994
 1  18.10576296619662  4.45768216141614 -3.23036046964696
 1  16.78341302660266  3.09823473467347 -3.35615616881688
 1  17.91513938793879  5.24027468046805  0.28482764846485
 1  18.76380399119912  5.14281050755076 -1.25897803890389
 1  17.44023659345935  6.09961437153715 -1.28098645074508
 1 -5.28915680028003 -7.63921502090209 -0.18273258925893
 1 -6.50382087338734 -6.83149253065307  0.80142998629863
 1 -5.03005522292229 -6.78713859005900  1.40058292669267
 8 -7.64008690399040  6.97220725212521 -0.68134156255626
 1 -9.08082146594660  6.23155057075708 -2.05253372087209

