%nproc=3
%Mem=2GB
# td=(NStates=1) iop(3/107=0140000000,3/108=0140000000) iop(3/107=0140000000,3/108=0140000000) CAM-B3LYP/6-31G(d,p) 

TD

0 1
12 -5.63336906810681  1.19541956965697  0.16839950875088
 6 -4.98940906270627 -2.16752071677168 -0.32605567066707
 6 -3.44198565846585  1.13618616011601  2.83816525472547
 6 -6.10198662096210  4.46858488158816  0.59980234143414
 6 -7.96130704870487  1.21768045044504 -2.31777587148715
 7 -4.44249133363336 -0.27395331843184  1.08020818781878
 6 -4.27174239463946 -1.57685886728673  0.75283900240024
 6 -3.23653505520552 -2.31141233983398  1.45467105570557
 6 -2.85333948934893 -1.26470714041404  2.58406519311931
 6 -3.60885768576858 -0.03704285688569  2.18071873047305
 6 -3.57837994599460 -1.75179187178718  3.97682554195420
 6 -1.99895473877388 -2.62701669486949  0.62068625472547
 6 -1.06964472737274 -3.59201428932893  1.37242111901190
 6  0.17457332473247 -3.86400127222722  0.62142030313031
 8  0.42702655655566 -3.42939262806281 -0.52288230363036
 8  1.07742942514251 -4.66752189698970  1.22657864636464
 7 -4.83126167716772  2.58067830453045  1.49328601520152
 6 -3.99225331253125  2.39261727772777  2.51276650245024
 6 -3.71887242444244  3.59243932643264  3.19762870727073
 6 -4.45175093079308  4.59449791529153  2.57647353155316
 6 -5.16882624502450  3.89694437093709  1.50372552445245
 6 -2.76223484838484  3.74476155985599  4.27436130663066
 6 -4.46576927692769  6.03533356755676  3.01063650045004
 8 -3.88350083738374  6.59398422862286  3.91818579107911
 7 -6.79119076867687  2.60664859735974 -0.75466813451345
 6 -6.88482067986799  3.94636504200420 -0.39355755885589
 6 -7.93555869606961  4.61291234803480 -1.20857366646665
 6 -8.44558759155916  3.62756188628863 -2.08864341674167
 6 -7.70788459996000  2.42577075117512 -1.77861163096310
 6 -8.37947022572257  6.01245261496150 -1.16903803840384
 6 -9.40243672207221  3.79558049634964 -3.19765231383138
 6 -8.77135611631163  3.93679504260426 -4.56681992869287
 7 -6.32436820412041 -0.14965014521452 -1.10477149754975
 6 -7.37308091479148 -0.04472537813781 -2.11250717331733
 6 -7.44365748234824 -1.35235038773877 -2.80204322892289
 6 -6.62048753245325 -2.18637241054105 -2.10553976387639
 6 -5.94189211271127 -1.43454748424842 -1.09638750345035
 6 -8.54972034673467 -1.56533632223222 -3.81307222662266
 6 -6.19252287938794 -3.57479658565857 -2.00790618451845
 8 -6.59743298389839 -4.48778374847485 -2.67286753245325
 6 -5.04008426192619 -3.57379914661466 -0.89689631043104
 6 -5.27697482508251 -4.68104330593059  0.15207235823582
 8 -5.74505868846885 -4.62280821422142  1.25732285258526
 8 -5.03682364556456 -5.89633351745174 -0.36118028942894
 6 -5.51730507970797 -6.95933952505250  0.49047658245825
 6  2.37361404300430 -5.05956221642164  0.60252823412341
 6  3.42489579967997 -4.06589808910891  1.05358664446445
 6  4.04305340904090 -3.26153597449745  0.24481685668567
 6  3.68393329062906 -3.11863505190519 -1.25423309210921
 6  5.03365757175718 -2.30328459665967  0.86519837073707
 6  6.43623922862286 -2.65880083308331  0.18340866676668
 6  7.65518464516452 -1.66398804460446  0.66792062666267
 6  8.92921152965297 -1.89332531453145 -0.07037375057506
 6  9.45441252135213 -3.29662956545655  0.17399052405241
 6  9.99836527212721 -0.87406802770277  0.38842680608061
 6  11.35763892119212 -0.82753554865487 -0.31742705330533
 6  12.25327294789479  0.30775996649665  0.24342513071307
 6  13.53312270637064  0.48520820772077 -0.55143490069007
 6  14.44474264726473 -0.91368209820982 -0.37332401760176
 6  14.22001193939394  1.73976874907491 -0.23325096749675
 6  15.53719300020002  2.11315325062506 -0.98579568726873
 6  16.02793241294129  3.51523403340334 -0.76321741474147
 6  17.35016941164116  3.92404131963196 -1.43133418121812
 6  17.12751173327333  4.08821438413841 -2.82974529452945
 6  17.85108852805281  5.22447057305731 -0.86799775677568
 1 -2.62506801270127  1.18106497009701  3.56371398259826
 1 -6.47260814371437  5.43932013421342  0.92024178687869
 1 -8.69921512061206  1.19563382488249 -3.12780816171617
 1 -3.69523658885889 -3.21874499119912  1.95731147324732
 1 -1.85981706770677 -1.15510311851185  2.95622778877888
 1 -3.19155848104811 -2.71814839573957  4.32930287618762
 1 -3.54128072817282 -0.98370048774877  4.73405954185419
 1 -4.72176385218522 -1.92282020002000  3.69681290389039
 1 -2.37396456205620 -3.07199024402440 -0.35387312191219
 1 -1.27613831353135 -1.87567619501950  0.42512335363536
 1 -0.68132252235224 -2.97862783508351  2.33468800990099
 1 -1.50501998059806 -4.60785762206221  1.83121215791579
 1 -1.52233088518852  3.73877856455645  3.80628300940094
 1 -2.86645429942994  4.56791643074307  5.02699836273627
 1 -2.67649758225823  2.66974016811681  4.92486946374637
 1 -4.96805066436644  6.80985896839684  2.20056217201720
 1 -10.09164314681468  2.95053220512051 -3.35709686428643
 1 -10.20673815671567  4.60703823832383 -3.01804479707971
 1 -9.61680744164416  4.12753065306531 -5.15616192679268
 1 -8.16380034603460  4.79879181978198 -4.53453313511351
 1 -8.06068634353435  3.12768708260826 -4.98882299699970
 1 -8.48034461606161 -1.09688294599460 -4.78839880888089
 1 -8.50984061196120 -2.72356941724172 -4.22810215411541
 1 -9.44997824692469 -1.40871750635063 -3.46005029012901
 1 -4.09539131513151 -3.84916073907391 -1.38758368846885
 1  2.50454839863986 -6.08759605270527  0.86112450035003
 1  2.25926925352535 -5.06657518391839 -0.59279471457146
 1  3.75291127352735 -4.30222034433443  1.96087445154515
 1  2.65945339723972 -3.19855141004100 -1.50782343244324
 1  4.26731406940694 -2.11137583818382 -1.56913513101310
 1  4.41659416681668 -3.88238009430943 -1.63719517681768
 1  4.71089495849585 -1.33967951255126  0.48987937903790
 1  5.12088444684469 -2.21806612381238  1.93577746404640
 1  6.63323254325433 -3.62466676617662  0.26161548324832
 1  6.34402324182418 -2.41519373537354 -0.90005969216922
 1  7.34150495209521 -0.66260281458146  0.45183393669367
 1  7.77708661886189 -1.61410965946595  1.64488196059606
 1  8.59634553415342 -1.73822186288629 -1.25589380808081
 1  8.80662282768277 -4.16064492439244 -0.28837130733073
 1  10.46820985038504 -3.44744809950995 -0.19200678257826
 1  9.57117386498650 -3.43013874247425  1.32577354035404
 1  9.34522558345835  0.07600601100110  0.34663383778378
 1  10.28043700230023 -0.96965528482848  1.40965190249025
 1  11.71463339443944 -1.87794511621162 -0.12600190799080
 1  11.38339427962796 -0.60817245274527 -1.33014385808581
 1  11.68690870897090  1.02375544734473  0.14803759335934
 1  12.49333009170917  0.06724800810081  1.30514969006901
 1  13.32015275757576  0.51308605140514 -1.65232143694369
 1  14.62246247344735 -1.02558557585759  0.82152725022502
 1  13.84782516901690 -1.71474465336534 -0.92226848094809
 1  15.30622047854785 -0.63178650635063 -1.01675407840784
 1  13.45718496409641  2.52018031723172 -0.23999387668767
 1  14.46221383358336  1.62457887238724  1.04819364666467
 1  16.32025075217522  1.46567202870287 -0.64271208620862
 1  15.23848864436444  2.02555080648065 -2.09834336523652
 1  15.32627408950895  4.21107431513151 -1.19696097609761
 1  16.04333396729673  3.73985994539454  0.24455691449145
 1  18.23794361116111  3.30468397689769 -1.14780916881688
 1  16.48261539833983  5.03681095999600 -2.88278255715572
 1  18.00433282318232  4.27140353355335 -3.47485491909191
 1  16.65086977227723  3.28509342054205 -3.21247180038004
 1  18.28144601860186  5.24619527252725  0.10274944064406
 1  18.59533714451445  5.50988721522152 -1.66789893099310
 1  17.23347591739174  6.00497490759076 -0.78669702180218
 1 -5.39053693829383 -8.03471457085709 -0.08721303730373
 1 -6.72677316861686 -6.92576195759576  0.57832767606761
 1 -4.81063328072807 -7.13008288448845  1.34444731313131
 8 -7.82867576287629  6.91286131753175 -0.48215164356436
 1 -9.21436482028203  6.23952136783678 -1.71469993749375

