%nproc=4
%Mem=2GB
# td=(NStates=1) CAM-B3LYP/6-31G(d,p) 

TD

0 1
12 -7.15952652565257  0.58321706980698  0.04796248364836
 6 -4.90419503750375 -2.03989516791679  0.53771030373037
 6 -4.74188411731173  2.85166361366137  1.17345371027103
 6 -9.34551928742874  3.10524602010201 -0.50414327402740
 6 -9.37745805950595 -1.66264177517752 -0.97748417751775
 7 -5.16446987158716  0.37104692279228  0.80322074037404
 6 -4.35207491359136 -0.77417723972397  0.86674469766977
 6 -2.92257126252625 -0.46159558525853  1.32162251645165
 6 -3.03555699409941  1.04034670297030  1.78989972067207
 6 -4.39072606750675  1.46952770157016  1.26245327522752
 6 -3.10308539063906  1.22738502660266  3.26522793169317
 6 -1.89797325832583 -0.78377363876388  0.23349730803080
 6 -0.46548397099710 -0.48854320152015  0.61029515881588
 6  0.54474561176118 -0.71966547944795 -0.59227460796080
 8  0.12113335343534 -1.19293470107011 -1.71988832053205
 8  1.80262207270727 -0.55735313171317 -0.11433822272227
 7 -7.07533798169817  2.60346593639364  0.25368406390639
 6 -5.98649792879288  3.37440841664166  0.68539207280728
 6 -6.36650390349035  4.75619990939094  0.73446413361336
 6 -7.68434114111411  4.85461609310931  0.28407679897990
 6 -8.02593686528653  3.49932912821282 -0.05664311801180
 6 -5.39835779247925  5.82779524542454  1.31931669216922
 6 -8.43881167876788  5.98105913961396 -0.03477649224922
 6 -8.46540043134313  7.15879199779978  0.73077932773277
 7 -9.05818809140914  0.71709457055706 -0.61736577027703
 6 -9.83199945964596  1.85822577567757 -0.66109243334333
 6 -11.07752684928493  1.55591393049305 -1.18189990949095
 6 -11.12061446534653  0.16508187228723 -1.29797851185119
 6 -9.83138881958196 -0.31811378567857 -1.00866588268827
 6 -12.23844266796680  2.56017658865887 -1.24825159996000
 6 -12.36307085338534 -0.63861127122712 -1.84735554405441
 6 -12.19212670107011 -1.01694410561056 -3.36361147974797
 7 -7.19309877817782 -1.42401201480148 -0.18384306130613
 6 -8.28690893069307 -2.25833100520052 -0.57277223242324
 6 -7.82746889248925 -3.56053432093209 -0.49610688798880
 6 -6.49629351345135 -3.65444978197820 -0.09084081598160
 6 -6.13911650805080 -2.17900618191819  0.12152495669567
 6 -8.69209667706771 -4.80889373177318 -0.92828130653065
 6 -5.38984345464546 -4.44560844434443  0.24321719431943
 8 -5.23518235613561 -5.64518900230023  0.23922095279528
 6 -4.20976455585559 -3.40309609940994  0.64165403070307
 6 -3.58196882778278 -3.69592481378138  1.89428980188019
 8 -3.86208780938094 -3.06852358855886  2.99640232133213
 8 -2.82340353405341 -4.74446916931693  1.82321090199020
 6 -2.25252584048405 -5.34832906200620  2.93433836933693
 6  2.82008452015201 -0.80479827442744 -1.15894709510951
 6  4.16877896689669 -0.34464264056406 -0.50072022102210
 6  5.10703418781878  0.40137640304030 -0.98075784848485
 6  4.96860528352835  1.14165681498150 -2.19575374067407
 6  6.47626195899590  0.63118496869687 -0.12861934713471
 6  7.70174771267127  0.04867452055206 -0.86774372487249
 6  8.92959483208321  0.04353922352235 -0.07190900370037
 6  10.19373999849985 -0.51301837353735 -0.89848081858186
 6  10.08105480568057 -2.08444938103810 -1.16725019001900
 6  11.40926380328033 -0.19226300710071 -0.11713084448445
 6  12.78923383108311 -0.34530858195820 -0.80376039893989
 6  13.95744521292129 -0.11571277407741  0.16908397589759
 6  15.30140626552655 -0.19535326442644 -0.60387862766277
 6  15.61944361326132 -1.68585621942194 -0.99385900360036
 6  16.36470057595760  0.29801416141614  0.48655316251625
 6  17.75201979137914  0.54492589098910 -0.18904471907191
 6  18.77548791829183  1.26695491249125  0.66731716471647
 6  20.29705837503750  1.38697903140314  0.22775753895390
 6  20.26490784458446  2.07877617481748 -1.10078107080708
 6  21.17671860266027  2.14121705800580  1.19642500590059
 1 -4.03943542804280  3.66984250565057  1.25594018091809
 1 -10.13075346804681  3.80631146614661 -0.56622201370137
 1 -10.15967925732573 -2.38449779057906 -0.95674232643264
 1 -2.54658111501150 -1.13361167506751  2.18951964316432
 1 -2.26393999919992  1.60050363296330  1.42138278867887
 1 -2.01946640414041  1.03258371127113  3.71896561006101
 1 -3.73907896789679  2.16003006050605  3.61103326872687
 1 -3.96932037473747  0.46045072907291  3.73800621342134
 1 -2.09551203610361 -1.90130009040904  0.00174626542654
 1 -2.22726439893989 -0.12057480708071 -0.64765480508051
 1 -0.24664818221822  0.54055866976698  0.94555495459546
 1 -0.16865466746675 -1.14095861106111  1.34310826602660
 1 -5.64979375477548  6.85798444254425  0.90428613781378
 1 -5.27835482488249  5.73543690679068  2.61431772887289
 1 -4.28773272927293  5.53610477687769  0.91894507010701
 1 -9.14663671617162  5.91029717781778 -0.82903313151315
 1 -9.20457167306731  7.96129686858686  0.46195581738174
 1 -7.95381484728473  7.54077047654765  1.49661804730473
 1 -12.24212831793179  3.29058938493849 -2.14904790949095
 1 -13.16177584678468  2.01935582678268 -1.19441063256326
 1 -12.25062679377938  3.25483413811381 -0.25096634063406
 1 -12.24244902330233 -1.51897134223422 -1.31669662456246
 1 -13.27577629652965 -0.16692342914291 -1.70941646914691
 1 -12.92799915251525 -1.60999568576858 -3.58155804030403
 1 -12.21083464766477 -0.14065860346035 -3.90571406710671
 1 -11.20206648594860 -1.39386425352535 -3.38782740274027
 1 -9.00884048704870 -4.82293303620362 -1.96000926502650
 1 -7.96731609640964 -5.53875387958796 -0.63506311931193
 1 -9.55516540144014 -4.75629065036504 -0.09544136673667
 1 -3.39821051695170 -3.65473872457246 -0.10253552505250
 1 -1.52475064156416 -4.70894733443344  3.59631254655466
 1 -3.08300790939094 -5.76505812341234  3.63723656255626
 1 -1.72773088458846 -6.16978625182518  2.67865181808181
 1  2.63515281938194 -1.84496633253325 -1.38484244924492
 1  2.51212869046905 -0.14229995039504 -2.05941909410941
 1  4.36897780338034 -0.91874408960896  0.48728194419442
 1  3.89387835133513  1.40307901830183 -2.64638300800080
 1  5.54065947764776  2.02810306920692 -2.00214668286829
 1  5.57986529412941  0.65823693119312 -3.08083681468147
 1  6.33507557045704  1.85821982198220 -0.07913527072707
 1  6.12672679207921  0.14006596919692  0.75849556625663
 1  7.37535492019202 -0.89599883508351 -1.22801412501250
 1  7.91663409930993  0.58238144624462 -1.82446537013701
 1  9.17223927552755  1.16419430443044  0.17461509370937
 1  8.69825831453145 -0.51945745194519  0.87030489418942
 1  10.22493004440444 -0.27365482778278 -1.96000088958896
 1  9.13378836433643 -2.42432040854085 -1.81320724552455
 1  10.97532008770877 -2.53124990889089 -1.38829307320732
 1  9.86188907490749 -2.61753369536954 -0.29941938163816
 1  11.45728340924092  0.83499572977298  0.28038952645264
 1  11.32117517091709 -0.77573353465347  0.79967058865887
 1  12.96619993889389 -1.19765792699270 -1.30903857145715
 1  12.89925367786779  0.50317100810081 -1.60950431173117
 1  13.99613104980498  0.98099065506551  0.62414975797580
 1  13.74040679377938 -0.85547515221522  0.89912642914291
 1  15.49973326182618  0.27793727872787 -1.53624798279828
 1  15.19310675357536 -2.39191948404840  0.01735028112811
 1  15.09855290599060 -2.05247762336234 -1.81598901400140
 1  16.56256588598860 -1.77958348324832 -1.46102757225723
 1  15.86806200690069  1.29124695839584  0.65533207750775
 1  16.66318076527653 -0.36482565766577  1.34257701890189
 1  18.14258519721972 -0.41142769016902 -0.40652399279928
 1  17.73671073557356  0.96360367926793 -1.16316989278928
 1  18.47168796139614  2.32691684938494  0.91803980928093
 1  18.86134329462946  0.92944712571257  1.61910191049105
 1  20.56534144684468  0.45154130233023 -0.16740967696770
 1  19.44816892349235  2.96984054595460 -1.06366996039604
 1  21.30686493859386  2.44470112291229 -1.76942830613061
 1  19.82795670007001  1.42476428722872 -1.86948391739174
 1  20.98700467566757  1.75966407550755  2.25348496569657
 1  22.19970167646764  2.19513074277428  0.91920688698870
 1  20.59452918281828  3.09880996429643  1.38498893939394

