%nproc=4
%Mem=2GB
# td=(NStates=1) CAM-B3LYP/6-31G(d,p) 

TD

0 1
12 -7.19206977997800  0.63367211531153  0.17542522992299
 6 -4.90296491449145 -1.90068124652465  0.56797333003300
 6 -4.90539046794679  2.79356780408041  1.28934529942994
 6 -9.43104784028403  3.03867936343634 -0.39017187688769
 6 -9.60590090379038 -1.71647715871587 -0.77368379747975
 7 -5.19464288888889  0.51660147824782  0.75882630093009
 6 -4.34480418651865 -0.64744456645665  0.73791181438144
 6 -2.96870587598760 -0.32306173187319  1.15111546574657
 6 -3.00300373877388  1.15610827912791  1.74703543424342
 6 -4.40703769866987  1.52258300710071  1.16144317421742
 6 -2.95067014911491  1.20188247634763  3.23051446034603
 6 -1.90386384738474 -0.45928118951895  0.02945690399040
 6 -0.41436885948595 -0.34833918111811  0.46676080538054
 6  0.51841297849785 -0.74624813771377 -0.64518989948995
 8  0.29223046314631 -1.11809721732173 -1.78017434913491
 8  1.81977378787879 -0.46382377877788 -0.26462325122512
 7 -7.18440888878888  2.64412000180018  0.30716941244124
 6 -6.06517579657966  3.32980395619562  0.82038557215722
 6 -6.47899515261526  4.69981427082708  0.82606329352935
 6 -7.80666337333733  4.89103973547355  0.37782617391739
 6 -8.17359163076308  3.50655985128513  0.05171771807181
 6 -5.52132008870887  5.94899736563656  1.04670943144314
 6 -8.62907070467047  5.99953098679868  0.05473245864586
 6 -8.52325621692169  7.18694481308131  0.69012526232623
 7 -9.17860013261326  0.64179704080408 -0.42139617331733
 6 -9.92616887658766  1.79540949404940 -0.63978030213021
 6 -11.25967506410641  1.51352969206921 -1.04363608310831
 6 -11.26871927582758  0.10414577867787 -1.23824253825383
 6 -10.07629331003100 -0.44782675697570 -0.63342835893589
 6 -12.36554537823782  2.52084265526553 -1.45847262206221
 6 -12.33519806610661 -0.79989739983998 -1.68813962246225
 6 -12.39997748614861 -1.24510692189219 -3.17164228282828
 7 -7.29576904520452 -1.41924153775378 -0.19590426742674
 6 -8.24872511231123 -2.30744591669167 -0.45047000220022
 6 -7.76801294689469 -3.65897416491649 -0.35943322062206
 6 -6.50686457055706 -3.52606694369437  0.05120338843884
 6 -6.22373496989699 -2.21501978327833  0.13306611081108
 6 -8.52701016841684 -4.89417225962596 -0.75202368076808
 6 -5.24406887718772 -4.29581346484648  0.19953282588259
 8 -4.98335717361736 -5.50788527192719  0.19825685638564
 6 -4.17272085148515 -3.26220201000100  0.51134099939994
 6 -3.46450708160816 -3.64315953725373  1.75108548144814
 8 -3.71694329492949 -3.17729446564656  2.85324800590059
 8 -2.60695188888889 -4.70130485288529  1.56913549444944
 6 -2.01781236913691 -5.15691992109211  2.74841977747775
 6  2.82114462616262 -0.70508830343034 -1.19773097349735
 6  4.17139922892289 -0.40636881318132 -0.63370351935194
 6  5.16407989238924  0.40153641904190 -1.11838161086109
 6  5.19695811881188  1.17124977427743 -2.30335450075007
 6  6.53316764956496  0.65860771097110 -0.30231671687169
 6  7.60965850375038 -0.00598094499450 -1.09372632313231
 6  8.95980785338534 -0.13149828022802 -0.25961777457746
 6  10.25922654715471 -0.65337240894089 -1.03022399289929
 6  10.13242994319432 -2.08464940104010 -1.40467393239324
 6  11.34279715661566 -0.39687346814681 -0.10096922832283
 6  12.79406431413141 -0.58407245834583 -0.77555757865787
 6  13.92817228562856 -0.12115331813181  0.13259032653265
 6  15.39320544544455 -0.33051678077808 -0.36966520632063
 6  15.74155582448245 -1.81956959075908 -0.67313693139314
 6  16.46225033093310  0.36095045504550  0.54170867806781
 6  17.82073666306631  0.64709610801080 -0.11439725432543
 6  18.81555192469247  1.26053427042704  0.83729416241624
 6  20.20607927712771  1.31128146164616  0.34774953815382
 6  20.38523987778778  2.05059335653565 -0.99360035273527
 6  21.08824975577558  2.01327426372637  1.48446380978098
 1 -4.31142262676268  3.52075759715972  1.50283487038704
 1 -10.10628102080208  3.80247108210821 -0.81808720022002
 1 -10.37796108550855 -2.32829217001700 -0.86576322852285
 1 -2.67723418031803 -0.89670798469847  1.92508319951995
 1 -2.19438304350435  1.75887947054706  1.28774942534253
 1 -2.00542500000000  0.98583903680368  3.70754446794679
 1 -2.89161422142214  2.38174223172317  3.66856902230223
 1 -3.73385682838284  0.54282896689669  3.75963837663766
 1 -2.09398188308831 -1.60298025842584 -0.10316422562256
 1 -2.16887856035604  0.17657490789079 -0.86554659425943
 1 -0.11401491889189  0.78674328822882  0.63195359445945
 1 -0.26738454045405 -0.93690820602060  1.47946190139014
 1 -5.87287606300630  6.57827647174717  0.13491920112011
 1 -5.51653864326433  6.56990035313531  2.01374767186719
 1 -4.48300225622562  5.70000116651665  0.91702487808781
 1 -9.27804985748575  5.93132928102810 -0.97031725992599
 1 -9.27962917881788  8.09403014191419  0.53959358115812
 1 -7.89914938073807  7.42554895439544  1.30837922342234
 1 -12.15580968606861  3.37311763776378 -2.12844584928493
 1 -13.25207487668767  1.99704359555956 -1.70672186368637
 1 -12.44976670777078  3.07729638433843 -0.41955319931993
 1 -12.46647142554255 -1.77086653175318 -0.88938389328933
 1 -13.22616133503350 -0.12788952575258 -1.11245677317732
 1 -13.43904025662566 -1.77133181938194 -3.23647353185319
 1 -12.57965152935294 -0.27374191179118 -3.75244874057406
 1 -11.59486576587659 -1.81209607670767 -3.30926954695469
 1 -8.74310391339134 -5.01845258815882 -1.88950221432143
 1 -8.09378874367437 -5.91067107130713 -0.47294690769077
 1 -9.56170605550555 -4.70577559885989 -0.26147797039704
 1 -3.26603729962996 -3.41205445614561 -0.23852912441244
 1 -0.98068623512351 -4.60379681938194  3.09842275757576
 1 -2.83119272787279 -5.10848246584658  3.68593143204320
 1 -1.48650676217622 -6.27599687288729  2.33913786668667
 1  2.79267857195720 -1.86071790769077 -1.50341430643064
 1  2.63375085268527 -0.08074379477948 -2.25946909910991
 1  4.25247615321532 -0.98105032023202  0.32099531553155
 1  4.29530849434944  1.37873658405841 -2.94063243294329
 1  5.54695010671067  2.24973523242324 -2.29594606280628
 1  5.59903721132113  0.73203431093109 -3.24345307630763
 1  6.76637870077008  1.72081608160816 -0.09613697089709
 1  6.43388750815082  0.36554851745175  0.79802951965197
 1  7.31593897859786 -1.16439567476748 -1.31295261886189
 1  7.69732216811681  0.39245245334533 -2.25745866946695
 1  9.27322937453745  0.97423530853085  0.15573320552055
 1  8.92910139883988 -0.83474898109811  0.60504836853685
 1  10.54618216961696 -0.01420888318832 -1.77749263876388
 1  9.52731771727173 -2.18230620712071 -2.22554847964797
 1  11.09943249894989 -2.55350213411341 -1.73182742664266
 1  9.64916780278028 -2.48512045404540 -0.65882532223222
 1  11.35191287218722  0.57692992319232  0.37309879737974
 1  11.26160921432143 -1.07390335163516  0.68534915651565
 1  12.84337765666567 -1.48772693389339 -1.15418308590859
 1  12.90472422492249  0.29593028402840 -1.61676503780378
 1  13.70272170887089  0.82795535153515  0.43270061306131
 1  13.81969472257226 -0.76621622632263  1.13747026352635
 1  15.33628691719172  0.34556404140414 -1.24383874187419
 1  15.73070051295130 -2.14494478657866  0.43554210031003
 1  15.00687373807381 -2.35748812441244 -1.28424583968397
 1  16.63439306870687 -2.00598612351235 -1.09361083058306
 1  16.20134533523352  1.28457629132913  0.77231377567757
 1  16.58759320652065 -0.16659583468347  1.45678844004400
 1  18.30426136483648 -0.19247579497950 -0.56361970237024
 1  17.70760782528253  1.28665598449845 -0.87807138293829
 1  18.44657545014502  2.32134629232923  0.99315732103210
 1  18.76412357265727  0.75163934493449  1.90363036333633
 1  20.44498941164116  0.28280442864286  0.13134019801980
 1  19.89400350695069  3.05440900280028 -1.02237583098310
 1  21.42607685978598  2.25493214601460 -1.41130249354935
 1  19.90957486188619  1.25279709050905 -1.69449641864186
 1  20.93113908910891  1.57962607170717  2.37095671287129
 1  22.16230793709371  1.98377960766077  1.21602656895690
 1  20.70011974187419  3.13625370867087  1.41324176467647

