%nproc=4
%Mem=2GB
# td=(NStates=1) CAM-B3LYP/6-31G(d,p) 

TD

0 1
12 -7.14963553655365  0.65176392449245  0.04358204560456
 6 -4.90221483948395 -1.88416959535954  0.48701523422342
 6 -4.83274320322032  2.89458790609061  0.90340670557056
 6 -9.52168690419042  3.10310580608061 -0.33198605830583
 6 -9.53538385208521 -1.80994650565057 -0.93673010211021
 7 -5.17420084468447  0.43995381348135  0.63768418671867
 6 -4.40475018111811 -0.69107892989299  0.72193021622162
 6 -2.95019402480248 -0.41517094279428  1.15900625482548
 6 -2.95089852825283  1.11570423872387  1.54936566726673
 6 -4.40251724662466  1.56020676947695  1.01003803370337
 6 -2.85381046314631  1.40512280038004  3.02058346724672
 6 -1.85058851985199 -0.57381264266427  0.01729568786879
 6 -0.47203462606261 -0.36492083928393  0.48852298159816
 6  0.50912204940494 -0.68854236713671 -0.58247362786279
 8  0.33065430553055 -1.09697510511051 -1.71141747344734
 8  1.84093590409041 -0.44839223562356 -0.09965675457546
 7 -7.14378482638264  2.66845243504350  0.30200889638964
 6 -6.01186046504651  3.43257423322332  0.56393992759276
 6 -6.50954820792079  4.73606789618962  0.80438112531253
 6 -7.88577128412841  4.82103273477348  0.40593898519852
 6 -8.19303357495750  3.44152334763476  0.05093764006401
 6 -5.56648460516052  5.90164263016302  1.12170693119312
 6 -8.70333813141314  6.00276130983098  0.32605959135914
 6 -8.48034192549255  7.14357047564756  1.00725697549755
 7 -9.12856512911291  0.56136899799980 -0.48361239493949
 6 -9.89875613531353  1.69757971107111 -0.59204552865287
 6 -11.21106020262026  1.39735807490749 -1.07666938643864
 6 -11.26665906980698  0.04285965006501 -1.25238395239524
 6 -9.95673135383538 -0.44719669396940 -0.88565358145815
 6 -12.28373719741974  2.41291186218622 -1.35022179697970
 6 -12.32691723802380 -0.85148255835584 -1.73752456095610
 6 -12.25910339873987 -1.14412682388239 -3.27987310591059
 7 -7.19754922322232 -1.41079069266927 -0.07088176517652
 6 -8.29816005580558 -2.25375054715472 -0.40891584678468
 6 -7.83865001060106 -3.55003327082708 -0.42564984228423
 6 -6.50547443154315 -3.62382671967197 -0.07429916181618
 6 -6.20990358675868 -2.17415569686969  0.09443224742474
 6 -8.78756622402240 -4.76986982938294 -0.76218469686969
 6 -5.37702217251725 -4.38170205370537  0.27004987758776
 8 -5.19859869776978 -5.55260974437444  0.32330936163616
 6 -4.14815839523952 -3.29353514331433  0.57201706700670
 6 -3.54235486638664 -3.64214943624362  1.82162253515352
 8 -3.72555415601560 -2.99784652085209  2.86384906600660
 8 -2.82720391409141 -4.74678940134013  1.71607018791879
 6 -2.11497208510851 -5.05144937403740  2.94263919941994
 6  2.84896740844084 -0.73020081468147 -1.03696489688969
 6  4.19235132413241 -0.43464164046405 -0.48211836083608
 6  5.17591107550755  0.37748401380138 -0.90532030473047
 6  5.05124354735474  1.14055670497050 -2.11095526082608
 6  6.47379171197120  0.39926177637764 -0.19375586078608
 6  7.59722726062606 -0.20416076297630 -0.94768171867187
 6  8.96247812041204 -0.11017614801480 -0.13493530633063
 6  10.24128475297530 -0.57983505520552 -0.90172114261426
 6  10.03694039423942 -1.94553548964896 -1.50133359835984
 6  11.49648252515252 -0.35646942774277 -0.01491062246225
 6  12.77186209390939 -0.47207125822582 -0.78765878877888
 6  13.99322879127913 -0.09871107390739  0.16004307180718
 6  15.34784090899090 -0.04600832993299 -0.65250349014901
 6  15.80799246814681 -1.51856949074907 -0.98200781848185
 6  16.45731983788379  0.51861622162216  0.37806231343134
 6  17.81521611101110  0.57361876027603 -0.16337215181518
 6  18.84424479397940  1.19925814281428  0.80216064906491
 6  20.27967663686368  1.23932426592659  0.35751051425143
 6  20.56593794759476  1.96764506170617 -0.97085807850785
 6  21.19098002880288  1.85024796109611  1.44088945234523
 1 -3.95235672017202  3.51261678307831  1.14143873077308
 1 -10.45455584828483  3.69581041604160 -0.53688908040804
 1 -9.92806609600960 -2.53607294809481 -1.34553120532053
 1 -2.66198265516552 -0.96667498139814  2.15257594879488
 1 -2.19634323952395  1.61656523912391  0.95754640504050
 1 -1.74445890339034  1.03176362926293  3.12605631913191
 1 -2.89797485748575  2.47269132663266  3.24647681308131
 1 -3.39093253595360  0.85964064806481  3.65996840964096
 1 -2.04330681558156 -1.70247020742074 -0.22515642484248
 1 -2.07151882438244 -0.02194494409441 -0.81056109570957
 1 -0.25468898629863  0.72467708160816  0.92489288838884
 1 -0.21123892589259 -0.95155967116712  1.25243919911991
 1 -6.08860763616362  6.66757540164016  0.40661637083708
 1 -5.72094908430843  6.30571393449345  2.18342463956396
 1 -4.45538949494949  5.80747191359136  1.00882405800580
 1 -9.81087313981398  5.60210635873587 -0.04070429862986
 1 -9.22525374127413  7.99617035593559  0.81779140094009
 1 -7.61447091289129  7.55562196169617  1.51486987248725
 1 -11.76665077017702  3.04735506150615 -2.11961496619662
 1 -13.27643731293129  1.89252314351435 -1.55106629812981
 1 -12.23681541264127  3.10666932163216 -0.57450869486949
 1 -12.30847562596260 -1.69416886198620 -1.01324627952795
 1 -13.24053277217722 -0.28884562136214 -1.72459798729873
 1 -13.10801715431543 -1.79761444764476 -3.43700358485849
 1 -12.27618118231823 -0.25911044864486 -3.89184267996800
 1 -11.44867114641464 -1.78469333643364 -3.57399601960196
 1 -9.33530313331333 -4.75059580248025 -1.75846911101110
 1 -8.03051241604160 -5.51259126332633 -0.71200081308131
 1 -9.38217810271027 -4.69606462776278  0.14162233963396
 1 -3.33790448634863 -3.33264651535154 -0.16301157265727
 1 -1.49294746124612 -4.36836327602760  3.42595551085109
 1 -2.92610221882188 -5.30874249184919  3.68349118801880
 1 -1.49325743724372 -6.03409268246825  2.77921187408741
 1  2.81029033313331 -1.73412524842484 -1.53554751975198
 1  2.62261973957396 -0.00291601200120 -1.86642979517952
 1  4.53233413901390 -0.82267448264826  0.59456267226723
 1  4.00771973547355  1.07410612101210 -2.45668403810381
 1  5.31950736243624  2.11788204710471 -2.00940740894089
 1  5.85296260386039  1.02968407590759 -2.93932266326633
 1  6.81136319921992  1.42525652565257  0.28199084188419
 1  6.32866698609861 -0.21190922832283  0.73755347204720
 1  7.23860124482448 -1.35044427962796 -1.14473579717972
 1  7.81269370527053  0.33868707680768 -1.98961188478848
 1  9.24628668026803  0.96169405440544  0.21193882608261
 1  8.91348983768377 -0.91381688788879  0.85485334903490
 1  10.24891244264426  0.33433597129713 -1.79400428992899
 1  9.25030001550155 -1.85772374887489 -2.27558348314831
 1  11.12401495719572 -2.38234501840184 -1.80020426432643
 1  9.68847173317332 -2.62197413941394 -0.47243668336834
 1  11.38496617751775  0.76892912311231  0.38795028252825
 1  11.24328738213821 -1.08282424372437  0.94692531413141
 1  12.77135045394540 -1.49383754495450 -1.23952161976198
 1  12.85742949544954  0.12616330733073 -1.86927028832883
 1  13.72285372207221  0.80941349734974  0.66254359735974
 1  13.93265601870187 -0.78941854655466  0.99259577607761
 1  15.11775506400640  0.49973945894589 -1.55772013001300
 1  15.87630507340734 -2.04313460556056 -0.21385283918392
 1  14.96019907060706 -1.76220859645965 -1.66295371047105
 1  16.78384801420142 -1.48678420332033 -1.50754222372237
 1  16.06663186388639  1.60675850955096  0.56466301060106
 1  16.21435588278828 -0.21268044314431  1.22881564276428
 1  17.85528646734673 -0.52759930733073 -0.35021836223622
 1  17.94683174767477  1.09960727962796 -1.25356893269327
 1  18.47723851645165  2.37405156285629  1.06353435873587
 1  18.75646280658066  0.44423860486049  1.67027702800280
 1  20.63631854455446  0.11090723892389  0.29234629862986
 1  20.23597770437044  2.92179574147415 -0.85458905230523
 1  21.55214946704671  1.80693734653465 -1.11405276857686
 1  19.96985088948895  1.48316012681268 -1.64476144514451
 1  21.12201817701770  1.28181629072907  2.46780639783978
 1  22.16939864616462  1.61672290199020  0.97760272657266
 1  21.10782051195120  3.15339542284228  1.44741518201820

