%nproc=4
%Mem=2GB
# td=(NStates=1) CAM-B3LYP/6-31G(d,p) 

TD

0 1
<<<<<<< HEAD
12 -7.15237581058106  0.62824157225723  0.06035372277228
 6 -4.77808242624262 -1.96918809720972  0.45287181988199
 6 -4.63035296419642  2.87286573387339  1.13179954485448
 6 -9.38478321382138  3.00272576807681 -0.41300416011601
 6 -9.53793410711071 -1.76213172417242 -0.74810123922392
 7 -5.15128855345535  0.43718353645365  0.75850626892689
 6 -4.39963967006701 -0.66228605060506  0.76557458065807
 6 -2.91996100150015 -0.33912333803380  1.30047040124012
 6 -3.08931236963696  1.06989965826583  1.74786551725173
 6 -4.38188518341834  1.57657840664066  1.13489051895190
 6 -3.02153723582358  1.26465875397540  3.19484089298930
 6 -1.89702316331633 -0.54561982338234 -0.05508154985499
 6 -0.50527795039504 -0.32319666686669  0.47848197749775
 6  0.55062619981998 -0.59910342324232 -0.55563094359436
 8  0.30768200830083 -0.90313572117212 -1.76105243694369
 8  1.79349115961596 -0.49610700710071 -0.14185097399740
 7 -7.10646109400940  2.63332892269227  0.32100079557956
 6 -5.97168644764476  3.42940391619162  0.71513504710471
 6 -6.49026627972797  4.80589487888789  0.73637432463246
 6 -7.70206291329133  4.78021865336534  0.27118550985098
 6 -8.11291556315632  3.44014320962096 -0.04001145484548
 6 -5.62209016571657  5.91178364426443  1.10706546704670
 6 -8.50991878947895  5.95159619331933  0.16039302470247
 6 -8.37701159245925  7.15658177677768  0.72292854265427
 7 -9.12665493809381  0.62966582768277 -0.51850588428843
 6 -9.90054631433143  1.77860781388139 -0.57141346544654
 6 -11.22567166376638  1.41009934903490 -1.04576629612961
 6 -11.22403480738074  0.13729909400940 -1.24667338133813
 6 -9.98326400710071 -0.48922089638964 -0.81414643074307
 6 -12.30402922662266  2.42640321132113 -1.33939071387139
 6 -12.39544409070907 -0.68793620372037 -1.75245605410541
 6 -12.47445493389339 -0.84612702390239 -3.19601472007201
 7 -7.14856432473247 -1.38978859245925 -0.24760943794379
 6 -8.23026326612661 -2.29979515161516 -0.50100505570557
 6 -7.83994013961396 -3.71384965246525 -0.51153843114311
 6 -6.49078296239624 -3.51703604060406 -0.18077980988099
 6 -6.13069566596660 -2.22106038733873 -0.00001719751975
 6 -8.76712417981798 -4.83500634303430 -0.81537001540154
 6 -5.38868333863386 -4.39250313381338  0.20543341594159
 8 -5.31140997889789 -5.60364484788479  0.11853888458846
 6 -4.07977155655566 -3.35592138193819  0.61400126542654
 6 -3.47305793669367 -3.73911913321332  1.89363973687369
 8 -3.70462206280628 -3.04109084528453  2.89702238333833
 8 -2.73765495919592 -4.79069379177918  1.77855643654365
 6 -2.26323691159116 -5.33067729682968  3.07871280678068
 6  2.85937844954495 -0.56059385398540 -1.15402660306031
 6  4.09802189118912 -0.37120529682968 -0.56192634163416
 6  5.15362884728473  0.34223048844884 -0.97095686838684
 6  5.13736215921592  1.28243089238924 -2.10533469876988
 6  6.48818315111511  0.31817366756676 -0.21566805200520
 6  7.67089462736274 -0.37903825072507 -0.94237118761876
 6  8.95126699929993 -0.20104523492349 -0.16294810761076
 6  10.22309293379338 -0.78324539623962 -0.80316128662866
 6  10.17963466366637 -2.27345828192819 -1.11349481448145
 6  11.42529540644064 -0.37548132893289  0.05270613921392
 6  12.82813772147215 -0.57349140024002 -0.70985100800080
 6  13.98295776417642 -0.14303550635064  0.10864793229323
 6  15.39405553045304 -0.24732846194619 -0.55806404620462
 6  15.74240590949095 -1.74758239203920 -0.96867648534854
 6  16.41485559145915  0.50455481548155  0.40257476467647
 6  17.80704529392939  0.59553095149515 -0.21758757335734
 6  18.69532990249025  1.47517573457346  0.63315374837484
 6  20.18790745994599  1.54933526702670  0.20151491469147
 6  20.39702105590559  2.28318661586159 -1.02392338503850
 6  21.10589151995200  2.08865180148015  1.38224358775878
 1 -3.78590007450745  3.66674219561956  1.38380296719672
 1 -10.07366775947595  3.92126296129613 -0.58090348184818
 1 -10.14810810021002 -2.45806514731473 -1.07407405960596
 1 -2.69380583748375 -0.98636695059506  2.10929162036204
 1 -2.27944154935494  1.52305588818882  1.19002965336534
 1 -2.15811026852685  0.87631808470847  3.55624933843384
 1 -3.11778683868387  2.26289034653465  3.38559072447245
 1 -3.97598104080408  0.65870055405541  3.48131054385439
 1 -2.14097658255826 -1.47927788818882 -0.39826373557356
 1 -2.22168384088409  0.24289153955396 -0.79848988858886
 1 -0.23676719411941  0.72854746864687  0.78522892199220
 1 -0.43499130113011 -1.09618413361336  1.23012696789679
 1 -5.88110688608861  6.91711035513551  0.82285799499950
 1 -5.31516850625062  6.17482084518452  2.23335963306331
 1 -4.55708966496650  5.56914808120812  0.89112228782878
 1 -9.22539459195920  5.80160630873087 -0.61544177237724
 1 -9.08426964286429  7.99964070297030  0.65142476427643
 1 -7.74473393919392  7.52920932043204  1.41900028552855
 1 -11.99318342344234  3.23734406040604 -2.16954995969597
 1 -13.23671334053405  1.83835772697270 -1.53405459695970
 1 -12.37112884398440  3.06843549824982 -0.39114035803580
 1 -12.30793557195720 -1.75210465556556 -1.25218017291729
 1 -13.66926564546455 -0.37694443124312 -1.32212774027403
 1 -13.10690704330433 -1.29845453165317 -3.97647753225322
 1 -12.55051861606161  0.21894735713571 -3.62601609730973
 1 -11.53595987528753 -1.33394826192619 -3.44140276027603
 1 -9.68150775377538 -4.59411015391539 -1.59050231433143
 1 -8.10932029682968 -5.85558556275627 -0.92912252525253
 1 -9.44981486638664 -4.91660668196820 -0.06206802940294
 1 -3.45461615751575 -3.61254450515051 -0.08133340484048
 1 -1.63825199169917 -4.56108254795480  3.49786270157016
 1 -3.12169177777778 -5.72695431303130  3.59079191809181
 1 -1.56543465496550 -6.16303557675768  2.89951390429043
 1  2.63395269936994 -1.66777861376138 -1.41865583058306
 1  2.65894337193719  0.05306958655866 -2.05546869906991
 1  4.18794970057006 -1.01892410761076  0.29068228422842
 1  4.07583654715472  1.19129784018402 -2.52398076777678
 1  5.52943835553555  2.14968522742274 -1.83669013721372
 1  5.72809011661166  0.95389649714971 -2.97043577457746
 1  6.71681374427443  1.33301730173017  0.31171381418142
 1  6.36819093849385 -0.24468250565056  0.89559927662766
 1  7.43280066476648 -1.35276451165117 -1.12309363296330
 1  7.89223165906591  0.27351055915592 -1.81452437603760
 1  9.13209526112611  0.76612449744975  0.18053568576858
 1  8.81463995269527 -0.72474798099810  0.72493035673567
 1  10.34737228862886 -0.14273173547355 -1.95475036453645
 1  9.40727571307131 -2.40517849434943 -1.85751167596760
 1  11.22249480518052 -2.61837862176218 -1.64292853675368
 1  9.90839372537254 -2.75180712271227 -0.19822926262626
 1  11.58527620852085  0.75452768296830 -0.00866937943794
 1  11.41626467986799 -0.90017597889789  1.09216983858386
 1  12.86402972187219 -1.66128428962896 -0.93349101670167
 1  12.71986573907391 -0.33530283928393 -1.80870423172317
 1  13.74398583528353  0.97033958995900  0.35301264426443
 1  13.79197195029503 -0.66984658935894  1.04448096459646
 1  15.26203949244924  0.30327981298130 -1.60262462046205
 1  15.74158160106011 -2.36300659275928 -0.04453590749075
 1  15.16228927962796 -2.28182055765577 -1.63347076217622
 1  16.65537516691669 -1.98988451335133 -1.40604207370737
 1  16.03902910361036  1.46541437513751  0.86615315961596
 1  16.45239968716871 -0.12408158325833  1.33428618981898
 1  18.25985692439244 -0.36947349474947 -0.41822516291629
 1  17.62692975747575  0.82805012391239 -1.34884846064606
 1  18.25261605420542  2.52519667736774  0.63065107040704
 1  18.67672483278328  0.95085926692669  1.57422742304230
 1  20.48338325102510  0.32621877007701  0.00946801080108
 1  19.91386549314931  3.22585614751475 -0.85192878627863
 1  21.48970322242224  2.49809646244624 -1.30920228352835
 1  19.89362326672667  1.76349816061606 -1.79745671467147
 1  20.92157813301330  1.43898200730073  2.23956357355736
 1  22.09738144444444  1.97757898759876  1.17548251455145
 1  20.78534826472647  3.18523860716072  1.58624906540654
=======
12 -7.14610518351835  0.65223397149715  0.14854254165417
 6 -4.91508612661266 -1.98215939433943  0.60175670837084
 6 -4.78911884078408  2.82976142344234  1.32033839873987
 6 -9.36868160366036  3.08434392989299 -0.34653751345134
 6 -9.51841215491549 -1.74306981798180 -0.88676510561056
 7 -5.12850627522752  0.48754857295730  0.72651306960696
 6 -4.35529523562356 -0.67416723872387  0.82772079527953
 6 -2.94007301270127 -0.48166759245925  1.26312666686669
 6 -3.02937637603760  1.06631930023002  1.76882761346135
 6 -4.43966096099610  1.51607235603560  1.16950398029803
 6 -2.88797387948795  1.26784907300730  3.23874528342834
 6 -1.95776923792379 -0.67160242164216  0.06430038833883
 6 -0.47026444904490 -0.55325967316732  0.55556968626863
 6  0.49558069526953 -0.71461497439744 -0.72304768526853
 8  0.13793503360336 -1.01579698729873 -1.82447877957796
 8  1.74788659915992 -0.43120051645165 -0.34951174007401
 7 -7.11198164606461  2.66007159695970  0.41389008450845
 6 -6.08841812081208  3.47034801060106  0.87473100670067
 6 -6.35689294239424  4.80574486388639  0.69353004020402
 6 -7.64394710171017  4.90670130163016  0.12511090239024
 6 -8.11237550915092  3.52730192549255  0.02098464476448
 6 -5.44792274897490  6.02591505740574  1.02921768226823
 6 -8.45250304790479  6.03364439813981 -0.11538455305531
 6 -8.46429032033203  7.21663778237824  0.53225947574758
 7 -9.06796906950695  0.69469233033303 -0.49544357805781
 6 -9.83094935463546  1.82418237133713 -0.62378870297030
 6 -11.18440753735374  1.45761410051005 -1.13371509100910
 6 -11.16285868976898  0.05981134523452 -1.17174588858886
 6 -9.90270595129513 -0.43266524082408 -0.78541355745575
 6 -12.34155297899790  2.47769834083408 -1.32864963976398
 6 -12.27415196149615 -0.74661207130713 -1.60189099759976
 6 -12.13438092649265 -1.26077848904891 -3.10133525212521
 7 -7.30221969026903 -1.42656226982698 -0.05329000600060
 6 -8.27225746554655 -2.23376854895490 -0.49803475867587
 6 -7.90625677127713 -3.69136740424042 -0.48374565186519
 6 -6.57379126322632 -3.63217755475548 -0.13435516741674
 6 -6.17923051945195 -2.20504878617862  0.11932473667367
 6 -8.60420788818882 -4.85008785118512 -0.86565504390439
 6 -5.35111958225823 -4.36535041854185  0.19780265286529
 8 -5.18247708560856 -5.56353083648365  0.05381241194119
 6 -4.18495207460746 -3.30819660946095  0.54452431773177
 6 -3.53840447134713 -3.72130735203520  1.81598197109711
 8 -3.71495309590959 -3.15312204840484  2.91188386948695
 8 -2.75607680138014 -4.82386710911091  1.71448002890289
 6 -2.15261584948495 -5.32025625472547  2.86504143964396
 6  2.85783829552955 -0.72101989658966 -1.20594179457946
 6  4.10889297829783 -0.41526970327033 -0.49275942494249
 6  5.09596308070807  0.41117738313831 -0.87812758545855
 6  4.97403582658266  1.42762541184118 -2.07523168846885
 6  6.47662199499950  0.29041089128913 -0.19628611381138
 6  7.64562210011001 -0.08911925882588 -1.02044899539954
 6  8.92968484108411  0.05387025662566 -0.26371818461846
 6  10.15154577907791 -0.53756082778278 -0.94595556605661
 6  10.00767746794679 -2.09633056915692 -1.23010647564756
 6  11.41017389428943 -0.29498327912791 -0.00269940134013
 6  12.77473238093809 -0.48755280638064 -0.66535655855586
 6  13.88649811821182 -0.04988619141914  0.19101616911691
 6  15.31227735263526 -0.07237096619662 -0.51407964776478
 6  15.78474014291429 -1.63072070587059 -0.84277389508951
 6  16.37522162806281  0.50478483848385  0.44275878307831
 6  17.79123371277128  0.62768416681668 -0.18748456305631
 6  18.82185255475548  1.26463468046805  0.84046447944794
 6  20.29433810301030  1.25689602310231  0.24447921112111
 6  20.35159651345134  2.11564986218622 -1.03720471317132
 6  21.23693462426243  1.75946888318832  1.23847921132113
 1 -4.03986547104710  3.48741426282628  1.71332591949195
 1 -10.17359775247525  3.79872070707071 -0.46675206670667
 1 -10.18887217661766 -2.44356369716972 -1.41321797399740
 1 -2.84374083098310 -1.03483179707971  2.10703139433943
 1 -2.40075368056806  1.63214679727973  1.42306295669567
 1 -1.93111756925693  0.84670512341234  3.41988570207021
 1 -3.09972503250325  2.29397345484548  3.51142330773077
 1 -3.73994743744374  0.54837952195220  3.69326173897390
 1 -2.07315980088009 -1.67165712611261 -0.30529443864386
 1 -2.24029570207021 -0.02503525312531 -0.63193323292329
 1 -0.23752727012701  0.39934454835484  1.03647404650465
 1 -0.44627242924292 -1.50333484868487  1.31939589478948
 1 -5.76258503390339  6.81984062816282  0.27220292949295
 1 -5.75492248164816  6.49724308740874  2.07491378847885
 1 -4.39134309030903  5.88047921432143  0.70714388998900
 1 -9.20337238973898  5.82099824792479 -0.78862909110911
 1 -9.18080929682968  7.94800553945394  0.16539616141614
 1 -7.65445491129113  7.29118551805181  1.51663004850485
 1 -12.24049815491549  3.08389871587159 -2.21419442414241
 1 -13.36368603780378  1.93603749494949 -1.23189438093809
 1 -12.16074780588059  3.15805446014601 -0.44396564056406
 1 -12.52813759215922 -1.45572501760176 -0.99610456535654
 1 -13.11938065696570  0.01872513571357 -1.73584911241124
 1 -13.07790414301430 -1.84636932313231 -3.53806369086909
 1 -11.96367993219322 -0.33640817841784 -3.88111160686069
 1 -11.28127440674067 -1.94051891899190 -3.26097471747175
 1 -9.07260686368637 -4.74677542044205 -1.78070133423342
 1 -8.12586195099510 -5.88409841404140 -0.59985959895990
 1 -9.55816570147015 -5.14673969526953 -0.10390221282128
 1 -3.43718441434143 -3.46431968266827 -0.14059933143314
 1 -1.62527069356936 -4.46194263396340  3.25627854315432
 1 -2.94588419701970 -5.56570818841884  3.51778461736174
 1 -1.58278639013901 -6.27943721692169  2.47893184608461
 1  2.76098540264026 -1.71624346024602 -1.50148411341134
 1  2.67889536713671  0.16020029962996 -1.99132228442844
 1  4.49787069266927 -1.11154336953695  0.28146136213621
 1  4.09385834933493  1.55985469586959 -2.49771814151415
 1  5.27095250695070  2.48246850575058 -1.64152062026203
 1  5.61625893349335  1.15569667716772 -2.97092582358236
 1  6.80402246514651  1.19795379537954  0.20484312711271
 1  6.36953107250725 -0.45196323372337  0.65802551925193
 1  7.46059344404440 -1.09580881608161 -1.30311163476348
 1  7.74682711861186  0.37469067716772 -1.99612253585359
 1  9.20325237683768  1.16079396439644  0.07117474967497
 1  8.84369285798580 -0.31715722192219  0.84499236293629
 1  10.29028658005801 -0.07864532683268 -2.01298618811881
 1  9.18439342484248 -2.34164214071407 -2.05036096089609
 1  11.13185574127413 -2.59441622552255 -1.52738698259826
 1  9.88621150715072 -2.49900184218422 -0.22586202590259
 1  11.52885056595660  0.72943517371737  0.44501598909891
 1  11.09197225062506 -0.88914487578758  0.82497311891189
 1  12.97895121402140 -1.44145230643064 -0.80112778037804
 1  12.83427718021802 -0.05157446644665 -1.67549091039104
 1  13.63907534423442  0.97326988298830  0.54829217221722
 1  13.74679743284328 -0.41506111081108  1.09738625512551
 1  15.34759804830483  0.55044452945295 -1.37523188118812
 1  16.00040748364837 -2.34345463756376  0.11449999609961
 1  15.05235828652865 -1.91966434203420 -1.54566198129813
 1  16.65277490689069 -1.60806633153315 -1.58437990749075
 1  15.98793399409941  1.40626846054605  0.82209875417542
 1  16.63734818201820 -0.17386656175618  1.43522628382838
 1  17.89960089878988 -0.41083763116312 -0.59555289568957
 1  17.59599666416642  1.23355067396740 -1.08594217001700
 1  18.47946873947395  2.34363852155216  0.92102010731073
 1  18.70494765506551  0.59385356635664  1.72704270457046
 1  20.32811772447245  0.13116926512651 -0.02744568056806
 1  19.87456156275627  3.14308787068707 -0.94160775417542
 1  21.40804505660566  2.33084973777378 -1.33386474977498
 1  19.73644754915492  1.73112492329233 -1.81442841184118
 1  21.31618759395939  1.08765687478748  2.10766038323832
 1  22.28079978627863  1.86264749444944  0.98654362066207
 1  20.81682141204121  2.74704478777878  1.55244568506851
>>>>>>> 8e03b5b5abfc0030b3aa597dc0de36371bfbd096

