%nproc=4
%Mem=3GB
# td=(NStates=1) iop(3/107=0140000000,3/108=0140000000) CAM-B3LYP/6-31G(d,p) 

TD

0 1
12 -7.17765245694569  0.63993237673767  0.09188555855586
 6 -4.85311412791279 -1.87725495609561  0.56942234463446
 6 -4.70301633223322  2.87903662156216  1.22623272847285
 6 -9.30697746224623  3.06362391539154 -0.39512198749875
 6 -9.50334643264327 -1.75832759845985 -0.85420222512251
 7 -5.13226025722572  0.46721281188119  0.82726055005501
 6 -4.34556680398040 -0.62502364556456  0.91495939063906
 6 -2.85133135373537 -0.46631502950295  1.30934660376038
 6 -2.96349957685769  0.99523822542254  1.71940822012201
 6 -4.36160639533953  1.51858650975098  1.21544593849385
 6 -2.92450863166317  1.13751657095710  3.32815813041304
 6 -1.93577930763076 -0.49784577377738  0.15332914321432
 6 -0.50075578477848 -0.39087233523352  0.43808719101910
 6  0.40437236043604 -0.72474909680968 -0.62751254135414
 8  0.18139835663566 -0.98575235293529 -1.81512890599060
 8  1.74333293169317 -0.48966890529053 -0.23893928152815
 7 -7.07595523892389  2.70646385628563  0.19102002610261
 6 -5.96786693049305  3.38659242664266  0.71572744884488
 6 -6.29654456285629  4.78941580518052  0.74590284898490
 6 -7.64112889818982  4.97915972117212  0.22363849024902
 6 -8.15845537303730  3.50519745854585 -0.00052205360536
 6 -5.41445347924792  5.92621209490949  1.17471762696270
 6 -8.53697370537054  6.05667593719372  0.09691030353035
 6 -8.37555596559656  7.29521867156716  0.72781684098410
 7 -9.10404944604460  0.64881187558756 -0.45179175307531
 6 -9.78778626492649  1.75075840014001 -0.64020683418342
 6 -11.21859581228123  1.44880432493249 -0.97529238893889
 6 -11.19599908710871  0.10337788358836 -1.28515854415442
 6 -9.92920052365237 -0.40675086848685 -0.76072827412741
 6 -12.18337927562756  2.42233747514751 -1.43636308900890
 6 -12.31900569346935 -0.77427355115512 -1.72675200580058
 6 -12.22926483538354 -1.19997018931893 -3.11749240044004
 7 -7.18563152555256 -1.36014084978498 -0.20486316141614
 6 -8.23652797909791 -2.25401394689469 -0.60044162406241
 6 -7.74559659945995 -3.52291284268427 -0.50512081188119
 6 -6.51138892939294 -3.56379936203620 -0.11077315901590
 6 -6.17560129182918 -2.13618157395740  0.08243007840784
 6 -8.54514685418542 -4.82568866726673 -0.77135051815182
 6 -5.25123058595860 -4.28124168756876  0.15683065716572
 8 -5.13363435573557 -5.53119997699770  0.08197414601460
 6 -4.15980048264827 -3.25872331973197  0.60079840144014
 6 -3.50442461926193 -3.70342828552855  1.85537150565057
 8 -3.68186096949695 -3.14286164406441  2.96682004020402
 8 -2.80359571237124 -4.85042366086609  1.75347438493849
 6 -2.25481443844384 -5.40629583548355  3.05658305870587
 6  2.77557387778778 -0.73423171207121 -1.23465698289829
 6  4.07775866106611 -0.47741300920092 -0.71050361316132
 6  5.01365685698570  0.37378390639064 -1.07610048704870
 6  4.97697142274227  1.34361203650365 -2.24824895989599
 6  6.36902318101810  0.47416803280328 -0.34584510891089
 6  7.49929138173817 -0.12522107010701 -1.10201052975298
 6  8.77853556515652 -0.20717253335334 -0.31716781918192
 6  10.20178563916392 -0.59936159935994 -0.97980370037004
 6  10.22668594519452 -1.94969284918492 -1.43192015801580
 6  11.38236290009001 -0.32022691379138  0.09677171467147
 6  12.77642537803781 -0.51155118861886 -0.63843134823482
 6  14.00803207500750 -0.10666638093809  0.16259267086709
 6  15.39475546654666 -0.25850493409341 -0.45502115461546
 6  15.57316358735874 -1.73208159645965 -0.91328315461546
 6  16.42534952765277  0.30047656495650  0.40907564226423
 6  17.70393798149815  0.68039176877688 -0.23062958995900
 6  18.62518293689369  1.39614769326933  0.80861411811181
 6  20.09785258965897  1.30697012951295  0.33318002400240
 6  20.26936978277828  2.23904120922092 -0.84906960286029
 6  21.03214828182818  1.74450615051505  1.39893383338334
 1 -4.03665402890289  3.37484073547355  1.48174427022702
 1 -10.31331345464547  3.84672694719472 -0.36515104130413
 1 -10.08770319441944 -2.46192172727273 -1.07998581798180
 1 -2.51874916211621 -1.18090829352935  1.99878636933693
 1 -2.22000546684668  1.70466252735274  1.20518416741674
 1 -2.01591467786779  0.85281438783878  3.58114845224522
 1 -2.85066217531753  2.29487871067107  3.48444646684668
 1 -3.50479327982798  0.47036219051905  3.75434711991199
 1 -1.97316243524352 -1.47418808960896 -0.35625363246325
 1 -2.29946631563156  0.07689530933093 -0.64851158575858
 1 -0.31218664736474  0.75682526982698  0.81545540854085
 1 -0.16552497279728 -0.96956772337234  1.25987944624462
 1 -5.24112829052905  6.85885339733973  0.72569240054005
 1 -5.34643611491149  6.03218610001000  2.26727874037404
 1 -4.42446729132913  5.51078534653465  1.14197493009301
 1 -9.49590985078508  5.81437481948195 -0.54338569126913
 1 -9.00165922962296  8.08536825782578  0.56323609930993
 1 -7.60072800490049  7.63545038143814  1.47155611591159
 1 -11.90531100410041  3.29281842894289 -2.19712554405441
 1 -13.13970126782678  1.81455019741974 -1.78634436263626
 1 -12.34222525522552  3.20220755485549 -0.59712015151515
 1 -12.21903386828683 -1.74569549234923 -0.84664816571657
 1 -13.18344064316432 -0.09307201770177 -1.51316707110711
 1 -12.95985118431843 -2.07490115221522 -3.27871882998300
 1 -12.28203860956095 -0.43869234053405 -3.94289326772677
 1 -11.15480031943194 -1.56561758895890 -3.21196947514751
 1 -9.06705132373237 -5.08046454725472 -1.76901296429643
 1 -8.04564895009501 -5.82400835413541 -0.61081103620362
 1 -9.55226940594060 -4.79445789418942 -0.21397366606661
 1 -3.27915543404340 -3.18820542614261 -0.07967570567057
 1 -1.57050043764376 -4.63787600100010  3.42632435003500
 1 -3.06010244754475 -5.45120464536454  3.71863290099010
 1 -1.89847036753675 -6.50877166196620  2.82134549564956
 1  2.47009506430643 -1.77191381418142 -1.61936338503850
 1  2.62817925922592 -0.12510442564256 -2.06746780428043
 1  4.21972245894589 -1.05054346814681  0.22185358555856
 1  3.98788409990999  1.31075661836184 -2.63066355205521
 1  5.50017694989499  2.31177160106011 -2.15094253265327
 1  5.65538510701070  1.18054924582458 -3.00193645054505
 1  6.50227841174117  1.53354333493349 -0.13244363046305
 1  6.40724859695970 -0.03011034773477  0.63213940944094
 1  7.11713383618362 -1.22237291029103 -1.32373713091309
 1  7.64577713621362  0.44458356135614 -1.94918574147415
 1  9.02371841614161  0.77411690919092  0.13963639173917
 1  8.38420154095410 -0.78751710441044  0.53422954635464
 1  10.45329996179618  0.14920106790679 -1.87603276127613
 1  9.24583419251925 -2.27437572107211 -1.99503788568857
 1  11.10695983658366 -2.14343774307431 -1.87561291939194
 1  10.24860705780578 -2.74598871357136 -0.70892828652865
 1  11.24357599919992  0.65623205660566  0.52575034583458
 1  11.39345694119412 -1.13770506810681  0.89537585768577
 1  12.75235318781878 -1.55405282458246 -0.82907517901790
 1  12.79471530143014  0.12367730373037 -1.38723305700570
 1  13.85529694999500  0.95123048634863  0.55461028972897
 1  13.79908821942194 -0.62113849274927  1.21304367836784
 1  15.32659306070607  0.56073947094709 -1.23649491829183
 1  15.28651244804480 -2.47047638883888  0.12310417491749
 1  14.92812445684568 -1.98178269826983 -1.85942731623162
 1  16.60519879947995 -1.84958585558556 -1.38459497279728
 1  16.18387166066606  1.14694302800280  1.02256817311731
 1  16.62662674047405 -0.54146043084308  1.30154864956496
 1  18.20617735543554 -0.26457297129713 -0.71657185278528
 1  17.63278058765876  1.26497539163916 -1.23653939753975
 1  18.42697175407541  2.55024629262926  0.92036398319832
 1  18.56296225872588  0.76697153665367  1.76434968046805
 1  20.52033186548655  0.30594159175918  0.10846673887389
 1  19.92322914141414  3.20533130963096 -0.47545973067307
 1  21.17610141094109  2.53129427152715 -1.26996497769777
 1  19.70607900550055  1.78467875807581 -1.76893527792779
 1  20.80466431993199  1.15185082598260  2.29212288108811
 1  21.92349024182418  1.45859633033303  1.17562421602160
 1  20.78999907840784  2.76124224142414  1.41703884058406

