%nproc=4
%Mem=2GB
# td=(NStates=1) CAM-B3LYP/6-31G(d,p) 

TD

0 1
12 -7.11815238823882  0.61545029312931  0.09571725912591
 6 -4.91316593459346 -1.98974015241524  0.51367790049005
 6 -4.79918984788479  2.84138258555856  1.16916328122812
 6 -9.34721945744574  3.15528102360236 -0.39437229692969
 6 -9.59932024572457 -1.65673118411841 -0.82682911201120
 7 -5.11601502610261  0.41986180428043  0.74716513481348
 6 -4.40022972907291 -0.74192401440144  0.87928595179518
 6 -2.96165517091709 -0.43204262996300  1.28525888008801
 6 -2.97458089648965  1.03158582688269  1.71487221792179
 6 -4.40601759665967  1.40809155795580  1.22726975687569
 6 -2.78200328242824  1.18220050815082  3.21910331923192
 6 -1.98405186618662 -0.63492875427543 -0.02529857155716
 6 -0.54369179177918 -0.42787713491349  0.42839696899690
 6  0.39767090429043 -0.72411592449245 -0.72054743524352
 8  0.25226646674667 -1.04250965856586 -1.87217354905491
 8  1.73391520202020 -0.55172256865687 -0.29771656055606
 7 -7.12221266916692  2.54895048484848  0.31333002850285
 6 -6.04456373537354  3.29169014481448  0.85462899649965
 6 -6.45583283638364  4.79478376777678  0.77864855205521
 6 -7.71248395539554  4.81636226772677  0.30081847314731
 6 -8.09127339893990  3.51675087038704  0.02684523082308
 6 -5.45427338403840  5.87500996689669  1.05917067756776
 6 -8.37284508210821  6.02038307200720  0.01672865826583
 6 -8.28894278557856  7.19364548314831  0.68355460526053
 7 -9.09243151575157  0.63777663876388 -0.41226526022602
 6 -9.83958021772177  1.85870582368237 -0.59684600870087
 6 -11.15963506010601  1.50281862096210 -1.09171089058906
 6 -11.17424982888289  0.15285064916492 -1.17437615161516
 6 -10.00905658635864 -0.37180915521552 -0.76046106220622
 6 -12.25130395409541  2.46021659265927 -1.40108688348835
 6 -12.37966251255125 -0.78135554565457 -1.59886069456946
 6 -12.27203469186919 -1.08530094129413 -3.11586670527053
 7 -7.23146261456146 -1.31103071667167 -0.17302197919792
 6 -8.38877911771177 -2.20796596869687 -0.50423537873787
 6 -7.92337848344834 -3.62038030553055 -0.50461773907391
 6 -6.56191007510751 -3.56959129612961 -0.13160489238924
 6 -6.22325492189219 -2.18387666896690  0.08996180038004
 6 -8.65443291069107 -4.78782162456246 -0.89152763116312
 6 -5.31278574887489 -4.26676055955596  0.20392326492649
 8 -5.12223106100610 -5.50718520192019  0.19950698139814
 6 -4.16096967636764 -3.28315410521052  0.52878274357436
 6 -3.51882251315132 -3.58509373067307  1.91364173707371
 8 -3.81103270387039 -3.03695043124312  2.96564924602460
 8 -2.73072426612661 -4.66854157655766  1.74309289018902
 6 -2.24186477437744 -5.21085531463146  2.97334226972697
 6  2.72282479417942 -0.84269206380638 -1.29452065246525
 6  4.07799988898890 -0.53359153545355 -0.61230137913791
 6  5.14054753915392  0.19069533493349 -0.98324809750975
 6  5.19163758675868  1.00590323962396 -2.24203836913691
 6  6.42966729952995  0.33766561676168 -0.15774225942594
 6  7.61580911881188 -0.38117846474647 -0.86927387788779
 6  8.93376524912491 -0.25334046444644 -0.12102391519152
 6  10.12502312681268 -0.59957702940294 -0.85944691519152
 6  10.17203390359036 -2.01640257635764 -1.45395886088609
 6  11.33395627252725 -0.25272905370537 -0.02310144154415
 6  12.76578148584858 -0.48438248934893 -0.64037406030603
 6  13.95464493289329  0.04974377157716  0.25453252075208
 6  15.39773589848985 -0.17054078317832 -0.57131537133713
 6  15.74128579747975 -1.60143777757776 -0.95601521922192
 6  16.43601770767077  0.47130149014902  0.33605811301130
 6  17.87532212161216  0.69661105950595 -0.15156097069707
 6  18.72184255375538  1.38972718971897  0.76873730673067
 6  20.21056972617261  1.39396973047305  0.32914767796780
 6  20.37338869266927  2.25641393859386 -0.95550654335434
 6  21.07193812461246  2.09118205450545  1.36472183558356
 1 -3.91955343984398  3.29577509890989  1.53859844674467
 1 -10.05391578427843  3.92062289728973 -0.60504589608961
 1 -10.27297058645865 -2.24293363416342 -1.32320897309731
 1 -2.67907436433643 -1.35282359625963  2.07670836203620
 1 -2.27392099729973  1.66402998559856  1.16507715811581
 1 -1.71014547204720  0.92426287918792  3.37353106660666
 1 -3.08733379337934  2.18629268676868  3.60552271767177
 1 -3.44515795849585  0.36809149314931  3.56555896869687
 1 -2.05025751065106 -1.61811177157716 -0.42925683488349
 1 -2.30708238073807  0.14459170957096 -0.68769880948095
 1 -0.47419093649365  0.73180779467947  0.79575997509751
 1 -0.26994479647965 -1.01410592579258  1.36784073927393
 1 -5.89316809220922  6.74167281138114  0.40913662286229
 1 -5.52039902930293  6.25357872097210  2.13818011511151
 1 -4.33012696869687  5.50394156055606  0.97768094369437
 1 -8.97819987248725  5.87910405850585 -1.02846307450745
 1 -8.88583979987999  8.16153689258926  0.34214383618362
 1 -7.77031649744974  7.22313871337134  1.72155054055406
 1 -12.05857996309631  3.00851117711771 -2.29936294099410
 1 -13.25396506570657  1.93163705490549 -1.51779297079708
 1 -12.53662539363937  3.23092174687469 -0.74213545754575
 1 -12.49005378377838 -1.75786523162316 -0.86318127302730
 1 -13.26648536743674 -0.16408314511451 -1.53542907040704
 1 -13.33562991559156 -1.33353804000400 -3.74336422092209
 1 -12.00123368756876 -0.15484002160216 -3.72323581928193
 1 -11.23198947824783 -1.74906977407741 -3.20710933093309
 1 -8.86775637863786 -4.63713445634563 -2.03865712981298
 1 -7.79076844164416 -5.52985298949895 -0.77649726272627
 1 -9.50847073197320 -4.70504552585259 -0.19124094669467
 1 -3.21959265516552 -3.29281253195320 -0.18159343084308
 1 -1.61956012251225 -4.54565100480048  3.52348526382638
 1 -3.00322993159316 -5.63992561016102  3.70401324022402
 1 -1.73914202570257 -6.29358863206321  2.63033698659866
 1  2.65162446654665 -1.73191502740274 -1.63036700170017
 1  2.71366884448445 -0.18812453285329 -2.27810096229623
 1  4.21824272987299 -1.16220843604360  0.29793300930093
 1  4.24771373487349  1.33619232963296 -2.65187355705570
 1  5.75104051575158  1.90391064996500 -2.13015948414841
 1  5.57551485908591  0.30693180068007 -3.21717044804480
 1  6.53707577047705  1.26122012201220  0.17049969276928
 1  6.34767888728873 -0.16746478387839  0.90605032173217
 1  7.33115049974997 -1.37650688588859 -0.99991131473147
 1  7.83897633353335  0.09566277437744 -1.94321724532453
 1  9.06329838143814  0.75026291129113  0.22730036223622
 1  8.79251774047405 -0.93741924812481  0.74456231993199
 1  10.09764731613161  0.06221875957596 -1.79129401890189
 1  9.37029201470147 -2.01917989448945 -2.21821774657466
 1  11.26553910961096 -2.09250603450345 -2.02482672657266
 1  9.92562544854485 -2.69888183018302 -0.62488192789279
 1  11.40659834073407  0.88441067126713  0.17771925942594
 1  11.21377443084308 -0.93422938423842  0.85532615421542
 1  12.76065938483848 -1.62849101030103 -0.76060372797280
 1  12.86818057055705  0.18336902790279 -1.63358671997200
 1  14.00991242794279  0.97250980698070  0.63796113911391
 1  13.94435718881888 -0.67906751145114  1.01693821032103
 1  15.32739602810281  0.61610109510951 -1.38612297029703
 1  16.05032247514751 -2.35399569166917 -0.15019647354735
 1  14.97976102680268 -2.13241561716172 -1.71418883398340
 1  16.68508813821382 -1.54481000590059 -1.46367783728373
 1  16.01455665636563  1.45827366106611  0.44755129942994
 1  16.60424487168717 -0.23497267236724  1.27425018621862
 1  18.44699563826383 -0.26853340074007 -0.26022936333633
 1  17.71800886538654  1.07432475137514 -1.23763733953395
 1  18.28185897849785  2.24761891959196  1.08254625992599
 1  18.90539770007001  0.83122730373037  1.75561556185619
 1  20.78169308200820  0.57005315351535  0.24617168116812
 1  19.85085919251925  3.03718728062806 -0.72536613001300
 1  21.50685493759376  2.32001865466547 -1.07713907720772
 1  19.86502040644065  1.99957176797680 -1.75645261426143
 1  20.83365934113411  1.72407051615161  2.36530614781478
 1  22.03247495379538  2.12192342204220  1.30695566186619
 1  20.59637936783679  3.20368045134513  1.60010045054505

