%nproc=4
%Mem=2GB
# td=(NStates=1) CAM-B3LYP/6-31G(d,p) 

TD

0 1
12 -7.10150072307231  0.58576732483248  0.10151783918392
 6 -4.82260687868787 -1.96404758315832  0.56681321402140
 6 -4.86449637853785  2.84100254755476  1.26457282218222
 6 -9.46662139763976  3.07929342484248 -0.48950180988099
 6 -9.45418573227323 -1.77134264526453 -0.97965439453945
 7 -5.01698512311231  0.43029284738474  0.72318273657366
 6 -4.27441714781478 -0.67093691569157  0.85831385458546
 6 -2.92424142954295 -0.34660408610861  1.34121447564756
 6 -2.97707114551455  1.16668933723372  1.80311104180418
 6 -4.27723471837184  1.55261601040104  1.28103513341334
 6 -2.82958804090409  1.33292558065807  3.29827123602360
 6 -1.81738519951995 -0.49947520892089  0.14732869116912
 6 -0.48471589418942 -0.43403775097510  0.66461059035904
 6  0.50716185338534 -0.58833234613461 -0.50067544804480
 8  0.23498473857386 -0.95604101170117 -1.62078841054105
 8  1.74049586008601 -0.48344574097410 -0.10262705160516
 7 -7.13553400130013  2.65565115491549  0.39939863536354
 6 -6.03015229422942  3.37612858865887  0.71004453805381
 6 -6.37447470057006  4.81176546594659  0.75905659285929
 6 -7.71311401840184  4.86722735423542  0.36849524082408
 6 -8.16850112171217  3.55316451175118  0.02542508880888
 6 -5.48502645934594  5.98132059795980  1.22025678617862
 6 -8.48182598019802  6.08920995469547  0.12629961536154
 6 -8.48505239653965  7.20430654925492  0.81040729052905
 7 -9.03827610021002  0.66147900900090 -0.63491752545255
 6 -9.77037329702970  1.75031498459846 -0.73883020712071
 6 -11.12157125372537  1.44119245834583 -1.18799051855186
 6 -11.15717812171217  0.02637800190019 -1.33086180018002
 6 -9.84043972467247 -0.47317929222922 -0.89472448854885
 6 -12.33278210191019  2.44653522452245 -1.49880665546555
 6 -12.27221176747675 -0.75402281238124 -1.71602241074107
 6 -12.23142063046305 -1.25644805600560 -3.25630074867487
 7 -7.15696516481648 -1.37531714531453 -0.24826950395040
 6 -8.09377961776178 -2.23679885198520 -0.59683463866387
 6 -7.72588873447345 -3.66407467496750 -0.65227250455045
 6 -6.47373125722572 -3.52406674367437 -0.20519225112511
 6 -6.09076167256726 -2.24174245554555 -0.01366856265627
 6 -8.45368283568357 -4.97879072147215 -0.83150162856286
 6 -5.24948941924192 -4.40196407990799  0.10848372097210
 8 -4.98767760566057 -5.59641412481248  0.12477950865087
 6 -4.06514009340934 -3.31616740654065  0.55869573487349
 6 -3.56965759665967 -3.53020824212421  1.93730410331033
 8 -3.73163476407641 -3.00659739593959  3.00139282038204
 8 -2.85831702540254 -4.74621934433443  1.98367694859486
 6 -2.47449803770377 -5.38987321642164  3.08496343184318
 6  2.71831434313431 -0.53713150775078 -1.14506570697070
 6  4.09533162216222 -0.28098627492749 -0.54475462446245
 6  5.01052453685368  0.55584184958496 -0.85930570327033
 6  5.02094051705170  1.31863451275128 -2.19121328662866
 6  6.42193652645265  0.46253810401040 -0.25886237143714
 6  7.52741027892789 -0.21290163706371 -1.03066001650165
 6  8.90370224282428 -0.34729986038604 -0.19324113691369
 6  10.15789641414141 -0.62095916761676 -0.94376534703470
 6  10.08360506070607 -2.06481741784178 -1.43796726172617
 6  11.37910078697870 -0.33692747354735  0.01531239983998
 6  12.68740364806481 -0.45497954905491 -0.75416543944394
 6  13.90928039643964 -0.06494769756976  0.21487855535554
 6  15.24465058995900 -0.38127185628563 -0.51041928172817
 6  15.61514318321832 -1.81820945474547 -0.73911352905291
 6  16.38221232713271  0.30277463746375  0.31603611081108
 6  17.68318290769077  0.48267966636664 -0.32571838643864
 6  18.61536190569057  1.21177939493949  0.66332676567657
 6  20.11902057125712  1.33935426892689  0.23783854705471
 6  20.09647100090009  2.35499379657966 -1.02904389708971
 6  21.14049498029803  1.92047498379838  1.23756912031203
 1 -4.13225470997100  3.56042156355636  1.90477506440644
 1 -10.40527091979198  3.86437727272727 -0.87006239773977
 1 -10.23305659505951 -2.58463780458046 -1.16786343854385
 1 -2.69078553545355 -1.10021833573357  2.06705739693969
 1 -2.34452805800580  1.69988357095710  1.22545319571957
 1 -1.97154161166117  0.75742619551955  3.71808552205221
 1 -2.87244230423042  2.40143420092009  3.70671283668367
 1 -3.49797324002400  0.61076576057606  3.83168558135814
 1 -1.79416190109011 -1.55675563596360 -0.27574148334833
 1 -2.10002167466747  0.18762601300130 -0.61589162876288
 1 -0.20238375577558  0.53650826472647  1.01854225332533
 1 -0.32489029102910 -1.30381489668967  1.37172112731273
 1 -5.70379915531553  7.02370101420142  0.76516222542254
 1 -5.57148413781378  6.17656101920192  2.21949824692469
 1 -4.31514547054705  5.63247441384138  1.09456263186319
 1 -9.31328338083808  5.89213536163616 -0.70200042824282
 1 -9.32110332623262  7.95376611551155  0.70681030283028
 1 -7.84570403620362  7.57892429192919  1.62092047754775
 1 -12.06171027612761  3.15487581358136 -2.31350435513551
 1 -13.21573124232423  1.81830572177218 -1.93720491199120
 1 -12.44917664876488  3.22847150185018 -0.76192743674367
 1 -12.29274405280528 -1.63148259335934 -1.22481743664366
 1 -13.28897761666166 -0.45376211301130 -1.73299882738274
 1 -13.13865021762176 -2.02090677687769 -3.54744462896290
 1 -12.59533309750975 -0.44366890449045 -4.02021551725173
 1 -11.39380565986599 -1.89963483058306 -3.60062868286829
 1 -8.96561616461646 -5.05174591749175 -1.80897416151615
 1 -7.82764212901290 -5.77054705890589 -0.87434704770477
 1 -9.12708259315932 -5.18721374267427 -0.20565238783878
 1 -3.38356905280528 -3.31273452415242 -0.29887515901590
 1 -1.62659082558256 -4.71850829052905  3.74248716401640
 1 -3.26150575917592 -5.46735835343534  4.00656349524952
 1 -1.90305841734173 -6.23480275347535  2.77305125802580
 1  2.60004930903090 -1.58376021192119 -1.67642160716072
 1  2.77596507410741  0.30039431903190 -1.87742089428943
 1  4.46421732733273 -0.90718293349335  0.34940815681568
 1  3.98748771227123  1.10705941634163 -2.71516988668867
 1  5.13116852855285  2.45980623952395 -2.14803127132713
 1  5.77492480008001  0.96019712721272 -3.07331606260626
 1  6.80165222812281  1.47582158215822 -0.03908126532653
 1  6.02854697409741 -0.01603964136414  0.90261997869787
 1  7.25850323502350 -1.19291852705271 -1.32416373997400
 1  7.61144358025803  0.42171537963796 -1.99699262286229
 1  9.04511656325633  0.65179306430643  0.28769640184018
 1  8.74935342404240 -1.32523803000300  0.67426529022902
 1  10.43900145154515  0.06225876357636 -1.88169305880588
 1  9.33259824532453 -2.22845082158216 -2.26292221702170
 1  11.16749930563056 -2.10420720462046 -1.78653289718972
 1  9.87579046504650 -2.87229917191719 -0.57258669836984
 1  11.25608328922892  0.72439466966697  0.49597108460846
 1  11.26227928132813 -1.19182514381438  0.83149377097710
 1  12.90611393029303 -1.71019918111811 -1.01126879447945
 1  12.75534928742874  0.02350304130413 -1.80508386968697
 1  13.71597303400340  1.00885344134413  0.33646098909891
 1  13.76517927102710 -0.60175978067807  1.26361287778778
 1  15.37766105460546  0.12009149414941 -1.63436779477948
 1  15.91598904180418 -2.34868516061606  0.16781532763276
 1  14.78766181688169 -2.05237761336134 -1.61497891299130
 1  16.57880751015102 -1.83779930483048 -1.26081755125513
 1  15.91837703840384  1.25545337903790  0.62961950625062
 1  16.42083653085308 -0.35159433453345  1.16036879807981
 1  18.13849478817882 -0.34224077147715 -0.79647298769877
 1  17.78264532903291  1.31177849674967 -1.10202377817782
 1  18.44531532413241  2.29359351705171  0.89430743604360
 1  18.82701986228623  0.82393657465747  1.67232723302330
 1  20.59123403610361  0.34678082628263 -0.10779371537154
 1  19.46571067766777  3.29350291219122 -0.85287888128813
 1  21.09167341944195  2.72340899369937 -1.45877724102410
 1  19.60869477387739  1.76699851065106 -1.93731070007001
 1  21.29302527772777  1.28942705180518  2.03502311951195
 1  22.11725343164316  2.21835306500650  0.73659862616262
 1  20.72596232613261  2.90004008730873  1.72734317481748

