%nproc=4
%Mem=2GB
# td=(NStates=1) CAM-B3LYP/6-31G(d,p) 

TD

0 1
<<<<<<< HEAD
12 -7.11247182018202  0.60659940804080  0.02926061346135
 6 -4.85084970297030 -2.01558273667367  0.54775130783078
 6 -4.81253118201820  2.79178762606261  1.12966933183318
 6 -9.44470920642064  3.09421491699170 -0.39615247494749
 6 -9.52245255895590 -1.80963647464746 -0.89457588668867
 7 -5.10387381198120  0.38427824592459  0.78838925722572
 6 -4.41873157925793 -0.69184900690069  0.97163518671867
 6 -2.88863786918692 -0.40468989468947  1.23741409560956
 6 -2.94515795419542  1.14168683698370  1.71723245394539
 6 -4.39749674457446  1.57707845664566  1.09504653455346
 6 -2.91483656575658  1.39268155625563  3.21728313721372
 6 -1.85766922792279 -0.68445370677068  0.14652861116112
 6 -0.43279070167017 -0.43335768296830  0.57038116741674
 6  0.49836097329733 -0.75632914581458 -0.60070545104510
 8  0.16797803790379 -1.12261766936694 -1.72791912361236
 8  1.82091390189019 -0.53613100950095 -0.25068185708571
 7 -7.17858830673067  2.57975356515652  0.32750144564456
 6 -6.12621190019002  3.31704268006801  0.78506203980398
 6 -6.50776802990299  4.78021231063106  0.91026171337134
 6 -7.75393810081008  4.84984561606161  0.43701209250925
 6 -8.15070934253425  3.49599879517952  0.16697924422442
 6 -5.58682663936394  5.85993845974598  1.32658741924192
 6 -8.57227502510251  6.07229826352635  0.16855384078408
 6 -8.46161005230523  7.19969608820882  0.79214546434643
 7 -9.14441671427143  0.60956381748175 -0.56390042374237
 6 -9.82111837153715  1.80680063316332 -0.66985330943094
 6 -11.16181527812781  1.40685902500250 -1.23123484298430
 6 -11.23010541444144  0.10656602070207 -1.27670638463846
 6 -9.91464714541454 -0.42453442774277 -0.90378539463946
 6 -12.15832465616562  2.41337190819082 -1.69362613741374
 6 -12.41778632493249 -0.71214862496250 -1.78540934943494
 6 -12.05317280568057 -1.08393080428043 -3.30469558815882
 7 -7.23488295659566 -1.37228684228423 -0.12650732773277
 6 -8.23867410721072 -2.20105527762776 -0.59809476467647
 6 -7.72058820442044 -3.65002326982698 -0.53572084938494
 6 -6.50275415951595 -3.54580891789179 -0.23624535643564
 6 -6.21956455285529 -2.19530781208121  0.13794659885989
 6 -8.66945441284128 -4.71059390179018 -0.90590906930693
 6 -5.37871234153415 -4.37371125462546  0.12621549414941
 8 -5.20771960986099 -5.62801728512851  0.07822485318532
 6 -4.19604318371837 -3.36923271307131  0.67369723502350
 6 -3.72245287618762 -3.77434265556556  1.99908028092809
 8 -3.94428602920292 -3.11802853905391  3.09150183128313
 8 -2.84686588028803 -4.76053077547755  1.93136171707171
 6 -2.23212380028003 -5.04057828692869  3.23722865836584
 6  2.81147365906591 -0.61615941054105 -1.35617681808181
 6  4.09216130513051 -0.50159833613361 -0.63097324632463
 6  5.09698318271827  0.28663492889289 -1.01144091679168
 6  5.09510793379338  1.06176882618262 -2.23316748204820
 6  6.36936126892689  0.27637948814881 -0.19446593179318
 6  7.57167470537054 -0.23293364026403 -1.01523847434743
 6  8.88384025662566  0.05415028462846 -0.25707752055206
 6  10.18184880938094 -0.46479355105511 -0.91897286778678
 6  10.15977267746775 -1.92104304040404 -1.32403586858686
 6  11.32924580148015 -0.11946572737274 -0.01418054945495
 6  12.78167307500750 -0.36853090419042 -0.61907193009301
 6  13.97991746014601 -0.13503470627063  0.20492756025603
 6  15.36849297419742 -0.12722645174517 -0.42889112891289
 6  15.77184885378538 -1.62254988878888 -0.83896351405141
 6  16.54199830573057  0.48691305130513  0.41936644384438
 6  17.85452004140414  0.61999339773977 -0.29209502410241
 6  18.84207457695770  1.21659987698770  0.65109554255426
 6  20.33654232343234  1.26951728522852  0.18221298449845
 6  20.42065341914191  2.24231252845285 -1.01154214691469
 6  21.36969790059006  1.82711564786479  1.22453781718172
 1 -4.19545102960296  3.60439596099610  1.58474306120612
 1 -10.24677507020702  4.01862269726973 -0.55071046254625
 1 -10.31076436583658 -2.40921026182618 -1.24041069326933
 1 -2.40856731363136 -0.88739705360536  2.13084377557756
 1 -2.14370797599760  1.71983556615662  1.17245789618962
 1 -1.91084554205421  1.05472592549255  3.65472918641864
 1 -3.21108616861686  2.32709676717672  3.65209737513751
 1 -3.76658010071007  0.67615229922992  3.48960137293729
 1 -1.88354083898390 -1.66291625202520 -0.23491740094009
 1 -2.17039871237124 -0.04023677327733 -0.69351939153915
 1 -0.23735725312531  0.73671828572857  0.89819021812181
 1 -0.25271307330733 -1.11574608980898  1.50848480368037
 1 -5.70415919131913  6.72453109720972  0.71393710291029
 1 -5.53965095449545  6.16104946804680  2.43464976207621
 1 -4.54553850985099  5.68028919531953  1.15516869246925
 1 -9.52598465096510  6.05861200930093 -0.62402263046305
 1 -9.22231344724472  8.13880461936194  0.48242786458646
 1 -7.57767723352335  7.53611001050105  1.61249963546355
 1 -11.69955406050605  3.16427675367537 -2.61936494119412
 1 -13.26228589778978  2.13757764896490 -1.88074926642664
 1 -12.32603433453345  3.21397005170517 -0.82829407340734
 1 -12.62789756815682 -1.51102054715472 -1.35927088198820
 1 -13.35411413031303 -0.12886962376238 -1.68972449994999
 1 -12.97075342794279 -1.54116880308031 -3.84842472697270
 1 -11.86120968516852 -0.10194473207321 -3.88435193089309
 1 -11.13947022632263 -1.77710257735774 -3.37221584158416
 1 -8.91073067606761 -4.42812355525553 -1.97344060816082
 1 -8.11795115991599 -5.70106011021102 -0.66790640364036
 1 -9.53985387028703 -4.55885090639064 -0.43209503210321
 1 -3.39374006990699 -3.59416266696670  0.09976470497050
 1 -1.86418458495850 -4.01374781448145  3.76408932423242
 1 -2.94205381398140 -5.72572419001900  3.90471331023102
 1 -1.46315442694269 -5.88841811501150  3.09622357525753
 1  2.60960026412641 -1.75405724162416 -1.71758572357236
 1  2.39708718631863  0.15261954155416 -2.01423457565757
 1  4.33870477607761 -1.02928514371437  0.33019623562356
 1  4.13139210271027  1.32139084948495 -2.71673004270427
 1  5.51198661036104  2.14159441834183 -1.95126159435944
 1  5.90581788938894  0.51125223272327 -2.97433616461646
 1  6.72718478137814  1.39419341934193 -0.01264862206221
 1  6.23094721412141 -0.32839087648765  0.70732044874487
 1  7.47481486618662 -1.37008624382438 -1.22180350395040
 1  7.49771220712071  0.40780398849885 -1.95033795739574
 1  8.91044309590959  1.16836472147215 -0.02338470627063
 1  8.89399788848885 -0.61177668386839  0.71594945864586
 1  10.28815636703670 -0.13943140544054 -1.88668355785579
 1  9.25008999449945 -2.11030900740074 -1.93101902670267
 1  11.10625318101810 -2.28407519141914 -1.96143038693869
 1  10.16836972297230 -2.58608055005501 -0.43193263296330
 1  11.20071775267527  0.76828905910591  0.36365785328533
 1  11.28083113651365 -0.67063302460246  0.95130575217522
 1  12.69442276117612 -1.49866802800280 -0.95267293489349
 1  12.96547029952995  0.11935262626263 -1.61491485278528
 1  13.87853929062906  0.98326088208821  0.54653199619962
 1  13.71585433853385 -0.87646725142514  0.98238475497550
 1  15.28541182968297  0.48367785278528 -1.45383974197420
 1  15.96064350725072 -2.35425571767177  0.09699824592459
 1  14.73607665836584 -2.00366274187419 -1.27881529662966
 1  16.58896852625263 -1.70014553945395 -1.79052052155216
 1  16.10854605530553  1.32929076277628  0.86426297059706
 1  16.56047049424942 -0.16487566266627  1.25868863006301
 1  18.01405234393440 -0.43747029442944 -0.35951929232923
 1  17.83680074457446  1.21561888078808 -1.15121869766977
 1  18.50131092369237  2.20488464616462  1.13899190449045
 1  18.99155631593160  0.77811199219922  1.66135613591359
 1  20.82060697339734  0.35110125832583 -0.25779871587159
 1  20.11765587218722  3.34554811671167 -1.02530612401240
 1  21.55135938803880  2.23742039483948 -1.17945930923092
 1  19.87267117151715  1.70344215501550 -2.06117308630863
 1  21.30684665986599  1.14450255935594  2.02382199939994
 1  22.38050975727572  1.66194742444244  0.74632959925993
 1  21.28586831673168  2.97954803810381  1.41201164166417
=======
12 -7.08102867586759  0.59885863396340  0.05152283968397
 6 -4.82084670267027 -1.93998517691769  0.42412894559456
 6 -4.79598952785279  2.81422987028703  1.19248561346135
 6 -9.34981971747175  3.10233572907291 -0.37991085078508
 6 -9.47174748844884 -1.74647015801580 -0.96365279437944
 7 -5.13378680328033  0.44792461056106  0.69649006730673
 6 -4.32519222532253 -0.67488731073107  0.77344536773677
 6 -2.81322032743274 -0.42375180088009  1.36656701090109
 6 -2.97715115351535  1.07277994629463  1.73919465016502
 6 -4.38635563046305  1.57658840764076  1.14923195309531
 6 -2.95203028512851  1.26902919101910  3.23623503240324
 6 -1.89201266226623 -0.70886614801480  0.18813277157716
 6 -0.52293971657166 -0.54988933613361  0.55131926122612
 6  0.49413055025503 -0.65938945184518 -0.60060544104410
 8  0.25252649274928 -0.96518192579258 -1.77900423212321
 8  1.72471428192819 -0.46923431983198 -0.08013480238024
 7 -7.07947839573957  2.61220681048105  0.38389708520852
 6 -6.06070534953495  3.36487746354635  0.72264579817982
 6 -6.31379863296330  4.71617590699070  0.73478416561656
 6 -7.70713342034203  4.78435906740674  0.36369476077608
 6 -8.12596686828683  3.52341153645365  0.18388093439344
 6 -5.44642259895990  5.76567903380338  1.15951071157116
 6 -8.53981177877788  5.92660369406941  0.10280726612661
 6 -8.46722061336134  7.17409352795280  0.65898214801480
 7 -9.03422569516952  0.66486934803480 -0.57177121082108
 6 -9.80974723442344  1.78283823692369 -0.63195952005201
 6 -11.11525062166216  1.43565190429043 -1.18115983548355
 6 -11.12595499939994  0.06916228032803 -1.30305901990199
 6 -9.89807548824882 -0.43177515181518 -0.92004702080208
 6 -12.23265208890889  2.41416198719872 -1.39702647744774
 6 -12.35097964426443 -0.74400181028103 -1.67053786228623
 6 -12.51667915631563 -1.04845725692569 -3.07851296989699
 7 -7.16052552085209 -1.36573618721872 -0.24381905890589
 6 -8.23076331613161 -2.23150832293229 -0.60757571277128
 6 -7.69978612421242 -3.58581684918492 -0.57851512881288
 6 -6.41142502660266 -3.54943928092809 -0.15362709460946
 6 -6.13726632303230 -2.24887316861686  0.04380718491849
 6 -8.53697116451645 -4.74254709710971 -0.91563004140414
 6 -5.26738120842084 -4.37474135763576  0.22060493309331
 8 -5.16995583348335 -5.54938942234223  0.30250728142814
 6 -4.14195777517752 -3.29881567136714  0.54297416271627
 6 -3.55131576247625 -3.66133135443544  1.85839621252125
 8 -3.77759936053605 -3.19227596379638  2.96123880498050
 8 -2.67575876957696 -4.63055777817782  1.69286786768677
 6 -2.16159674757476 -5.06102033113311  2.99092402790279
 6  2.71936444814481 -0.71897969256926 -1.12981418181818
 6  4.04095618461846 -0.33652182848285 -0.53748389738974
 6  5.04236772117212  0.35177144254425 -1.06897667036704
 6  4.89712813581358  1.15003765306531 -2.30827499279928
 6  6.38791312411241  0.55640749094909 -0.22913939913991
 6  7.57658519641964 -0.21584193109311 -0.84225117561756
 6  8.79059093169317 -0.05701083148315 -0.06904871767177
 6  10.14666529102910 -0.59899697139714 -0.69450042054205
 6  10.02590929112911 -2.07627856395640 -1.30525399039904
 6  11.36334921182118 -0.25555933673367  0.09790065866587
 6  12.74740964866487 -0.55879993109311 -0.69157918081808
 6  13.90887035543554 -0.09366056885689  0.15002206970697
 6  15.25216134103410 -0.08162189128913 -0.44917315711571
 6  15.59180084898490 -1.51366900070007 -0.90516013371337
 6  16.26757086298630  0.54010837083708  0.43028753595360
 6  17.86772136153615  0.52127352575258 -0.12043785838584
 6  18.78452882238224  1.35447366436644  0.68035846884688
 6  20.24983365256525  1.27334766826683  0.18056281948195
 6  20.37588894269427  2.01416971417142 -1.15823681638164
 6  21.14988591939194  1.81603453975398  1.14821018441844
 1 -4.08294977947795  3.63942946434643  1.35290987788779
 1 -9.94214460716072  3.86455729072907 -0.67340273177318
 1 -10.02241553095310 -2.37773711451145 -1.58900555275528
 1 -2.82142859975998 -1.01927024092409  2.31424211541154
 1 -2.15794940014001  1.56994057665767  1.18609926032603
 1 -2.14316877437744  0.84110456335634  3.72551626512651
 1 -3.09697475747575  2.26868092559256  3.62642480788079
 1 -3.68986242894289  0.64285896989699  3.71652406520652
 1 -2.33365585048505 -1.75435539593959 -0.13182709190919
 1 -2.05813748624862 -0.06369911951195 -0.75908594819482
 1 -0.33219673707371  0.41834644854485  0.88953935303530
 1 -0.28877667966797 -1.43239775497550  1.34141809700970
 1 -5.42160093549355  6.78037668176818  0.56759246844685
 1 -5.54730171957196  6.00048341144114  2.21551784888489
 1 -4.40029398539854  5.29606077247725  1.08989216481648
 1 -9.41692374487449  5.89096524462446 -0.44857508570857
 1 -8.85612682858286  8.10282102100210  0.44042366416642
 1 -7.67912737853785  7.43148954845485  1.40590897639764
 1 -11.84118822392239  3.48500882688269 -2.01180418511851
 1 -13.03885355455546  1.96775066626663 -2.16946813831383
 1 -12.72594432553255  2.99545820052005 -0.56743798779878
 1 -12.32614739313932 -1.68856830193019 -1.08002295719572
 1 -13.38154687358736 -0.32712944974497 -1.30910643814381
 1 -13.33430978357836 -1.71558624482448 -3.33390327482748
 1 -12.59767333153315 -0.10038457605761 -3.74596809250925
 1 -11.63012929222922 -1.55114998209821 -3.45438405840584
 1 -8.95421502450245 -4.66501724462446 -2.03426669076908
 1 -7.88905827062706 -5.66357636183618 -0.96318593159316
 1 -9.53056294119412 -4.74663968526853 -0.37924974757476
 1 -3.38849954585459 -3.49864311501150 -0.37880315181518
 1 -1.62659082558256 -4.42119855955596  3.43572648794879
 1 -3.04132374097410 -5.62217383498350  3.60408324722472
 1 -1.51803991549155 -5.94520379357936  2.67814176707671
 1  2.56050535463546 -1.69432126802680 -1.53436740174017
 1  2.46192366996700  0.05099937953795 -2.07520067226723
 1  4.06098700430043 -0.87297951315132  0.42382559855986
 1  3.98947791129113  1.01258996939694 -3.01747011671167
 1  4.82055746744674  2.26494675357536 -2.11086755495550
 1  6.07967527512751  0.94899600710071 -2.99862859385939
 1  6.54842690559056  1.50895489548955  0.06417906070607
 1  6.20071419081908  0.15385734833483  0.70987070377038
 1  7.23188057275728 -1.41451068626863 -1.10529185278528
 1  7.66387882378238  0.19778298639864 -1.87876079967997
 1  8.87074912651265  1.00339822482248  0.17937556975698
 1  8.55307379607961 -0.44128963516352  0.85614347804780
 1  10.21982953435344  0.06368890659066 -1.74097898739874
 1  9.29240422592259 -2.28531650815082 -2.08226415121512
 1  11.06779933563356 -2.51548833273327 -1.80437468136814
 1  10.06660954695470 -2.73880582258226 -0.48106754645465
 1  11.57819550045004  0.78291052125213  0.47776926442644
 1  11.25387844124413 -0.72212817411741  0.84341496309631
 1  12.61022434133413 -1.66543470467047 -0.85673334093409
 1  12.64387814031403  0.10411110211021 -1.49530289158916
 1  13.80562199889989  0.88829138513851  0.41650899389939
 1  14.11098385148515 -0.65438504320432  1.13448996549655
 1  15.27277056555656  0.69012849784979 -1.26919127712771
 1  15.53027046994699 -2.14046433853385 -0.00356181008101
 1  14.84948799949995 -1.91514388998900 -1.43637105220522
 1  16.53948357775778 -1.50084560946095 -1.31461293079308
 1  15.94972017271727  1.45089292299230  0.75470201450145
 1  16.34017846504650 -0.04396357145715  1.20253301450145
 1  18.11584252295230 -0.62674922232223 -0.16369971037104
 1  17.80663772827283  0.99109642854285 -1.16019959575958
 1  18.30813160576058  2.22289644734473  0.80470847614762
 1  18.57902506280628  0.92624680568057  1.80073007330733
 1  20.46386129882988  0.05623177137714 -0.13701663766377
 1  19.83100720732073  2.83675723762376 -1.03371696509651
 1  21.57775202730273  2.39473612641264 -1.26272763606361
 1  19.88747265166517  1.57782959375938 -1.90059702870287
 1  21.05675165036504  1.35611372047205  2.24230384758476
 1  22.26241794809481  1.80249147884789  0.97823278957896
 1  21.02325205510551  2.97446753005301  1.28094853535354
>>>>>>> 8e03b5b5abfc0030b3aa597dc0de36371bfbd096

