%nproc=4
%Mem=3GB
# td=(NStates=1) iop(3/107=0140000000,3/108=0140000000) CAM-B3LYP/6-31G(d,p) 

TD

0 1
12 -7.12836752845285  0.57818620212021  0.07250362036204
 6 -4.77244606110611 -1.97684491509151  0.46605200760076
 6 -4.81179721032103  2.82219093699370  1.09431953715372
 6 -9.40455722022202  3.13626117911791 -0.32573504880488
 6 -9.40991708970897 -1.81397316301630 -1.04951175607561
 7 -5.09855688688869  0.42719881048105  0.75705352935294
 6 -4.32566481378138 -0.71583272647265  0.89554744944494
 6 -2.88149437003700 -0.38244664266427  1.24734040314031
 6 -3.00729395629563  1.16089479107911  1.76925320462046
 6 -4.34902513721372  1.51560621172117  1.17110150405040
 6 -2.99329551035104  1.18371119041904  3.21998731333133
 6 -1.94013974367437 -0.58855484468447  0.13764757505751
 6 -0.48973468266827 -0.42750599859986  0.48661204350435
 6  0.44425634883488 -0.69696631853185 -0.63117290739074
 8  0.16179639643964 -1.06423020072007 -1.75063245634563
 8  1.70052865126513 -0.41180111851185 -0.16112149974997
 7 -7.17713535693569  2.62205541544154  0.33971489558956
 6 -6.01545168896890  3.42525629302930  0.75148102420242
 6 -6.38870377877788  4.79464632823282  0.87107536623662
 6 -7.70137492279228  4.82181398659866  0.44455058145815
 6 -8.20659018651865  3.54299123792379  0.15357335593559
 6 -5.42856489038904  5.84090356405641  1.19987014221422
 6 -8.69758976697670  6.00949121872187  0.17798841134113
 6 -8.64999340934093  7.26611576127613  0.73294735403540
 7 -9.06924596569657  0.67701469586959 -0.59571614551455
 6 -9.77399488578858  1.83052637693769 -0.70787360086009
 6 -11.16032998569857  1.56399584408441 -1.14507936763676
 6 -11.21163065026503  0.24967251305131 -1.35570559885989
 6 -9.90855845944594 -0.41649184258426 -1.03305550685069
 6 -12.15153609130913  2.59644488588859 -1.27297675037504
 6 -12.24850864376438 -0.67671379517952 -1.83019234983498
 6 -12.20059196809681 -1.13922411471147 -3.31798244944494
 7 -7.19137209960996 -1.34920975667567 -0.14874754985499
 6 -8.22945727202720 -2.21464000950095 -0.58787036693669
 6 -7.75481752155216 -3.56826737813781 -0.58139843964396
 6 -6.44271206170617 -3.51324430653065 -0.09664174587459
 6 -6.13818755045505 -2.18033598939894  0.07680951635164
 6 -8.51089342884288 -4.79597569596960 -0.87236061916192
 6 -5.31319678257826 -4.33226679007901  0.16358133223322
 8 -5.11932292459246 -5.57266412341234  0.12649859845985
 6 -4.17190169276928 -3.38575602300230  0.57256557815782
 6 -3.61367554435444 -3.67509545224522  2.00850681918192
 8 -3.87209999339934 -3.08107546544654  3.00461381958196
 8 -2.77922327512751 -4.76784540304030  1.87444648214821
 6 -2.19440839783978 -5.26996220212021  3.10873827422742
 6  2.78851517191719 -0.56889517841784 -1.28058157535754
 6  4.07331821702170 -0.44544981288129 -0.58069063186319
 6  5.07511300260026  0.31756828482848 -0.97591046804680
 6  5.18925265086509  1.19427710301030 -2.19837397239724
 6  6.41487776647665  0.22770338633863 -0.20615113951395
 6  7.64891634423442 -0.30256880488049 -0.87060738943894
 6  8.93458116971697 -0.17003881998200 -0.13017912031203
 6  10.18612407300730 -0.59440110331033 -0.95246096609661
 6  10.07552082868287 -2.11022890279028 -1.25621258725873
 6  11.40888555235524 -0.44628952005201  0.04385642314231
 6  12.73951168666867 -0.54290432393239 -0.74608211331133
 6  13.92893416521652 -0.11313702800280  0.09050546214621
 6  15.35045103610361 -0.16159524312431 -0.50831648414842
 6  15.63599987098710 -1.66343473177318 -0.75203703000300
 6  16.32439943264326  0.49846636393639  0.39031376607661
 6  17.70738832653266  0.56829055865587 -0.24035056205621
 6  18.71281169976998  1.41139921842184  0.68587184388439
 6  20.19443224762476  1.35526495899590  0.20125683168317
 6  20.41513435923592  2.12556986208621 -1.11425612151215
 6  21.12965803280328  1.89632133203320  1.26866080608061
 1 -4.17140750425042  3.53582683408341  1.63782987878788
 1 -10.32531465476548  3.82822509700970 -0.08130265646565
 1 -10.07389181328133 -2.44981051615161 -1.38895671507151
 1 -2.53620090729073 -1.12880308300830  2.05574206490649
 1 -1.98851231753175  1.45204726582658  1.27970161916192
 1 -1.94365745214521  1.01992109850985  3.92216255365537
 1 -3.20631774087409  2.16214543734373  3.56582460466047
 1 -3.57207000750075  0.57800295459546  3.72558424362436
 1 -2.01891701070107 -1.67426809760976 -0.08778678577858
 1 -2.11821819081908  0.07323494329433 -0.64813154775478
 1 -0.15959138783878  0.73862344964496  0.68323218621862
 1 -0.12793121342134 -0.95767653425343  1.26594005230523
 1 -5.74235841354135  6.84406191819182  0.70705053635364
 1 -5.33624509580958  5.89704258565857  2.28210022252225
 1 -4.43424826942694  5.57591185918592  0.83998473107311
 1 -9.41015127492749  5.83899728172817 -0.42991434413441
 1 -9.47366643034303  7.92776249724973  0.64124390009001
 1 -7.81284921702170  7.58259509590959  1.69100806110611
 1 -12.04891536453645  3.09971911901190 -2.13941977347735
 1 -13.00203750145014  2.13125186758676 -1.53726945514551
 1 -12.43853488618862  3.00285761986199 -0.36782722222222
 1 -12.28968093299330 -1.59382030483048 -1.26527002790279
 1 -13.15426772587259 -0.17360007050705 -1.63932968736874
 1 -12.89462466166617 -1.81473513561356 -3.66075703380338
 1 -12.15758616431643 -0.36291476277628 -3.92456143454345
 1 -11.21417625702570 -1.40885191239124 -3.39001727992799
 1 -8.99122374097410 -4.64442094289429 -1.86543260626063
 1 -7.63172755795580 -5.46070202350235 -0.81926188128813
 1 -9.25414959395940 -5.10645909430943 -0.27232950165017
 1 -3.37405492399240 -3.55774237983798 -0.12020975907591
 1 -1.79023241084108 -4.39289150255026  3.58822053965397
 1 -3.01550798809881 -5.88549807470747  3.65273631133113
 1 -1.50489100960096 -5.80441122592259  2.75751911301130
 1  2.38813686848685 -1.44958158095810 -1.66570801950195
 1  2.77064350565057  0.05918400320032 -2.06537759525953
 1  4.23570405710571 -1.18068648244824  0.17416881708171
 1  4.13204851635163  1.47126266896690 -2.48420890659066
 1  5.65479241144114  2.11526195009501 -2.14470190859086
 1  5.65874544304430  0.76277746864686 -3.11565782268227
 1  6.69397758165817  1.31658163876388  0.07258687258726
 1  6.25301317341734 -0.21366870357036  0.75830202570257
 1  7.50457258005801 -1.46472714571457 -1.18002275947595
 1  7.70263282178218  0.08734783778378 -1.90895171807181
 1  9.27515355965597  0.93199269676968 -0.05847341924192
 1  8.90978409920992 -0.85589394209421  0.84670079347935
 1  10.38232286408641  0.20262641044104 -1.86972213021302
 1  9.24247385648565 -2.19616790029003 -2.01783016491649
 1  11.10019916051605 -2.67544094339434 -1.71911726982698
 1  9.80497269436944 -2.67015112981298 -0.26676407010701
 1  11.42051369296930  0.35824225762576  0.52685045584558
 1  11.39971756725673 -1.15072637023702  0.87562388248825
 1  13.02019997249725 -1.63776119541954 -0.93049532103210
 1  12.64135996589659 -0.15049011301130 -1.84243857755776
 1  13.68659007930793  1.09268463176318  0.49273410211021
 1  13.90320863146315 -0.66995337423742  1.06019839383938
 1  15.07170757215722  0.33444684168417 -1.52070333913391
 1  16.01344514131413 -2.12044138533853  0.18070993549355
 1  15.01982362676268 -2.29702422242224 -1.40179155265527
 1  16.35742402200220 -1.82393329032903 -1.50356686998700
 1  16.05712898639864  1.57962629632963  0.81180709700970
 1  16.57325140294029 -0.23080936573657  1.26423491819182
 1  18.05425216291629 -0.44867138113811 -0.38136833243324
 1  17.66759406900690  1.24207310141014 -1.02871861546155
 1  18.07955701260126  2.46449771777178  0.76886883368337
 1  18.61540750325033  0.98949378887889  1.73394664016402
 1  20.32893272557256  0.38985998359836 -0.04245835363536
 1  20.23344016251625  3.18504928142814 -0.89878206290629
 1  21.35067886868687  1.89772091419142 -1.55158313951395
 1  19.64382277987799  1.76129641984198 -1.83951233563356
 1  21.21967582108211  1.26070171107111  2.20585425422542
 1  22.11182907570757  2.01140161086109  0.95400205380538
 1  20.77050712921292  2.67258337553755  1.71541867856786

