%nproc=4
%Mem=2GB
# td=(NStates=1) CAM-B3LYP/6-31G(d,p) 

TD

0 1
<<<<<<< HEAD
12 -7.23780435343534  0.66490523862386  0.04541222862286
 6 -4.81346596459646 -1.87106828522852  0.38302483518352
 6 -4.79975990489049  2.88516696399640  1.24209057395740
 6 -9.44680941644164  3.14069956545655 -0.41366422612261
 6 -9.55113542724273 -1.71793730473047 -0.83830025912591
 7 -5.09518294289429  0.40886070417042  0.68261868016802
 6 -4.28546825292529 -0.67673749574957  0.80588861206121
 6 -2.87658666406641 -0.50056948264827  1.27453780798080
 6 -3.05327876627663  0.95831850015002  1.71193192389239
 6 -4.35476247114711  1.55946669546955  1.18157518741874
 6 -3.02047712981298  1.11200348844884  3.27071848074808
 6 -1.93683714471447 -0.60348560996100  0.03739769806981
 6 -0.45630305290529 -0.38931327852785  0.45049917921792
 6  0.51273241044104 -0.77536104900490 -0.72505788628863
 8  0.19483072317232 -1.17685309290929 -1.78524485618562
 8  1.76282809330933 -0.56296369276928 -0.16053284218422
 7 -7.12631307920792  2.59857544734473  0.42306100160016
 6 -6.04275355435544  3.31473244904490  0.80705423902390
 6 -6.42895014811481  4.68938322772277  0.73114380158016
 6 -7.72023473047305  4.78291892339234  0.32858124942494
 6 -8.19125339693970  3.39960915621562  0.00726327262726
 6 -5.46618457515752  5.81009347524753  1.12692745324532
 6 -8.50847864546455  6.05502653635364  0.04130111551155
 6 -8.42206609790979  7.25118123672367  0.70855710551055
 7 -9.12440471307131  0.62492535363536 -0.55455948964896
 6 -9.87583384308431  1.75940589368937 -0.73908023212321
 6 -11.21132022862286  1.43774211331133 -1.13082480198020
 6 -11.24624702860286  0.10296566066607 -1.31042975697570
 6 -10.04508018871887 -0.41810378467847 -0.86096111221122
 6 -12.23698252195219  2.47092766376638 -1.30225700050005
 6 -12.41882642894289 -0.70817822792279 -1.77531834033403
 6 -12.33140062846285 -1.11485389658966 -3.24270938953895
 7 -7.22863233153315 -1.33703331693169 -0.20547522452245
 6 -8.28183842364236 -2.20761593369337 -0.41268622382238
 6 -7.88427457305731 -3.56982525002500 -0.46164344164416
 6 -6.52617650175018 -3.44654899189919 -0.08176990889089
 6 -6.14048664506451 -2.18706698799880  0.05405821002100
 6 -8.70064753215321 -4.91566440884088 -0.74630310871087
 6 -5.34480895119512 -4.35882976647665  0.21125399799980
 8 -5.17758659655966 -5.59734421782178  0.16925395609561
 6 -4.13279685908591 -3.21744753455346  0.54096396169617
 6 -3.50083071397140 -3.57248246954695  1.87554792769277
 8 -3.74988658925893 -2.97451418761876  2.91706438753875
 8 -2.69862105580558 -4.68347306970697  1.72655123602360
 6 -2.24944553245325 -5.29821405050505  2.98949388488849
 6  2.77399991169117 -0.69910770537054 -1.19884108450845
 6  4.10393248224822 -0.45322349864986 -0.46612676167617
 6  5.10540402480248  0.39409567496750 -0.95210498319832
 6  5.01421984498450  1.22699534883488 -2.21659582488249
 6  6.37574190699070  0.53011486168617 -0.09381586678668
 6  7.60770830873087 -0.19912025892589 -0.74316126662666
 6  8.95584745734573 -0.15353048344834 -0.09312112491249
 6  10.23271389588959 -0.43070014171417 -0.89108007850785
 6  10.12829953015301 -2.00787172327233 -1.27974143914391
 6  11.52611548844884 -0.25772955375538  0.01778264686469
 6  12.82282719041904 -0.47175122622262 -0.61715173807381
 6  14.02294176257626 -0.22540374317432  0.26058312581258
 6  15.40065619051905 -0.14535826492649 -0.49059729952995
 6  15.63397506640664 -1.57040467426743 -1.02242185988599
 6  16.50324443034303  0.32603696369637  0.43954846204620
 6  17.95097968736874  0.48919031743174 -0.17771358595860
 6  18.81721209070907  1.40871908890889  0.63300373337334
 6  20.28569723892389  1.29467980148015  0.18112287548755
 6  20.38752010581058  2.23537183438344 -1.14522551525153
 6  21.13715464626463  1.95996893319332  1.25738110151015
 1 -4.01684316881688  3.60358587998800  1.50967555445545
 1 -10.06272666536654  3.92126296129613 -0.63550894239424
 1 -10.24433772317232 -2.57604694549455 -1.13789044124412
 1 -2.40580703760376 -0.95669398329833  2.15251594279428
 1 -2.36433003820382  1.64211779437944  1.41141179157916
 1 -2.08810326782678  0.56324677757776  3.90166387988799
 1 -3.00992605260526  2.18410246774677  3.61868403380338
 1 -4.03765720842084  0.88544322832283  3.81070348314832
 1 -2.04392687758776 -1.56351631203120 -0.41279518871887
 1 -2.09663133563356  0.13937118751875 -0.83447348694869
 1 -0.09216273367337  0.69234384828483  0.58114851395139
 1 -0.12131993399340 -0.91359587478748  1.38212216741674
 1 -5.85143391879188  6.80838948304831  0.74751046024602
 1 -5.29942693209321  5.98414177727773  2.21080737783778
 1 -4.40030398639864  5.55728689508951  0.66393956955696
 1 -9.18385043754375  6.05965211331133 -0.81192142034203
 1 -9.22421363726373  8.09632037093709  0.41818143994399
 1 -7.87708717451745  7.38870527002700  1.66395478097810
 1 -12.23045715081508  2.98984931093109 -2.52889589428943
 1 -13.31856152535253  1.98247213841384 -1.36150734223422
 1 -12.28927065816582  3.28132678737874 -0.68232947694769
 1 -12.71587636603660 -1.71631107620762 -1.03911886678668
 1 -13.28727744664466 -0.04239097589759 -1.41177670517052
 1 -13.34011036363636 -1.65286997319732 -3.49778966346635
 1 -12.47820138433843 -0.03884842244224 -3.80115361106111
 1 -11.42308858815882 -1.73275814291429 -3.45803442344234
 1 -8.81937154015402 -5.29632037493749 -2.00267353145315
 1 -7.92665203000300 -5.73836384058406 -0.34152376537654
 1 -9.63446333123312 -4.96914193549355 -0.25978780138014
 1 -3.31248194409441 -3.27662091279128 -0.25179045054505
 1 -1.53316148264827 -4.84734117381738  3.44933784908491
 1 -3.14267387598760 -5.45523714131413  3.58559139803980
 1 -1.87982609410941 -6.26290556375638  2.50508446134613
 1  2.85553485758576 -1.75610744664466 -1.49097306230623
 1  2.59958743634363 -0.17438315871587 -2.05390854305430
 1  4.36221712731273 -0.92966518171817  0.55759897589759
 1  4.10705966946695  1.10138884928493 -2.91863023272327
 1  5.31347675937594  2.21309156805681 -2.08639510771077
 1  5.72777008460846  0.50656176367637 -2.79428815981598
 1  6.77419948284828  1.52077607760776  0.26609925272527
 1  6.20415453485349 -0.15061309870987  0.85954567126713
 1  7.33802118681868 -1.26747598279828 -1.12872419601960
 1  7.75048748464847  0.38213142124212 -1.78489141274127
 1  9.00343239483948  0.90669855485549  0.30642827502750
 1  9.09681817051705 -0.89608511471147  0.80868873257326
 1  10.27975552695269  0.06297883558356 -1.70211510101010
 1  9.06804178967897 -2.19147712421242 -1.66118204300430
 1  10.65541809750975 -2.45690247414741 -2.14135837973797
 1  10.56389927592759 -2.79369131113111 -0.28750819051905
 1  11.51803948484848  0.66312854305431  0.52817430493049
 1  11.13572662606261 -0.99937589888989  0.77473809540954
 1  12.93999731863186 -1.37586574777478 -1.12606027362736
 1  12.82119587208721  0.24544523552355 -1.51349471077108
 1  13.74991642834283  0.72089464546455  0.72671001400140
 1  14.17279003210321 -1.17123672837284  0.94245076157616
 1  15.38385167366737  0.69947943294329 -1.35142950095009
 1  15.63157059996000 -2.40507079917992 -0.06787824172417
 1  14.90147319801980 -1.93667604320432 -1.73813122822282
 1  16.58841847124712 -1.69103462836284 -1.61908337783778
 1  16.13627882858286  1.25334316801680  0.76452299659966
 1  16.68349279647965 -0.14374354945494  1.38509127032703
 1  18.46559749844985 -0.45866241364136 -0.18318165856586
 1  17.68635570007001  1.03468078697870 -1.13837741354135
 1  18.24140493309331  2.38954311201120  0.84253225852585
 1  18.60458761906191  0.87369155015502  1.66277627792779
 1  20.48076298899890  0.23531968016802 -0.01861479747975
 1  20.04028813541354  3.31092465436544 -0.86470006340634
 1  21.59573382548255  2.53504015681568 -1.37900926422642
 1  19.80926483088309  1.59619142994299 -1.77366433543354
 1  20.95094106930693  1.18852696179618  2.10524014121412
 1  22.20802250855085  2.02586381608161  1.01514648094810
 1  20.85947567746775  3.00815089838984  1.54654509500950
=======
12 -7.09876044904490  0.64272302040204  0.07022470987099
 6 -4.77257187518752 -1.94372555095510  0.47895442814281
 6 -4.79682961186119  2.78768721602160  1.22609897479748
 6 -9.34146888238824  3.01589708520852 -0.37515037473747
 6 -9.51053136683668 -1.74620013101310 -0.97773420252025
 7 -5.11345477007701  0.38755857395740  0.69848026632663
 6 -4.29646935303530 -0.68613843584358  0.73800182338234
 6 -2.94063306870687 -0.34122354805481  1.22531288548855
 6 -3.08490192859286  1.10637330563056  1.73767449814981
 6 -4.40077707260726  1.44259500830083  1.18378540844084
 6 -3.06022110421042  1.17065935403540  3.22570397929793
 6 -1.97146060706071 -0.57211247264726  0.08817277557756
 6 -0.51196861946195 -0.62827717491749  0.56706083538354
 6  0.45738687588759 -0.73176668956896 -0.57586296679668
 8  0.22612385248525 -1.01041644924492 -1.70545687738774
 8  1.75522733323332 -0.37170456685669 -0.24697148604860
 7 -7.08122857075708  2.60243583338334  0.36206490199020
 6 -6.09231851085109  3.35873684948495  0.84869840344034
 6 -6.42700995409541  4.76380066946695  0.79531021822182
 6 -7.76095880288029  4.78836946844684  0.24690308160816
 6 -8.07752202380238  3.41468066336634 -0.03293074677468
 6 -5.52025998269827  5.96623908980898  1.16265102560256
 6 -8.46607440504050  6.00704173787379 -0.01707472207221
 6 -8.41031492279228  7.18321444004400  0.67601385118512
 7 -9.11022329492949  0.66927978907891 -0.55659969366937
 6 -9.86740300000000  1.81047100020002 -0.59640596469647
 6 -11.23286238283828  1.44641298039804 -1.15208692819282
 6 -11.21844424832483  0.03602896699670 -1.30067878187819
 6 -9.89480516121612 -0.44180615491549 -0.84312932903290
 6 -12.27531635533553  2.48423899489949 -1.27858463326333
 6 -12.34820936723672 -0.75328273837384 -1.75370617911791
 6 -12.23505099349935 -1.05786819801980 -3.20194531313131
 7 -7.16509597789779 -1.42705231883188 -0.28487316431643
 6 -8.19588982878288 -2.31008618071807 -0.57899285448545
 6 -7.80487663326333 -3.60443871137114 -0.58259553685369
 6 -6.47292117621762 -3.59504384138414 -0.19749148104810
 6 -6.09479207560756 -2.27883616491649 -0.00519771557156
 6 -8.78404587198720 -4.86983982638264 -0.72244072247225
 6 -5.30430490079008 -4.48039192269227  0.18491136373637
 8 -5.06895573347335 -5.63648813221322  0.35245227592759
 6 -4.11578515791579 -3.31660745054505  0.47576744204420
 6 -3.55068569946995 -3.72322754405441  1.91402177507751
 8 -3.86571817241724 -3.15482221842184  2.96703938503850
 8 -2.64252544624462 -4.68294301670167  1.83778235913591
 6 -2.06225681358136 -5.20230445954595  3.05709064456446
 6  2.82113462516252 -0.44590238483848 -1.17477867826783
 6  4.07442953195319 -0.27985616191619 -0.53269341834183
 6  5.10439392379238  0.50515678107811 -0.96395616831683
 6  5.15440386338634  1.29720236953695 -2.23033719901990
 6  6.37689202200220  0.50744259445945 -0.21672815801580
 6  7.53811134903490 -0.03775412231223 -0.94101105160516
 6  8.83263513611361  0.05356022562256 -0.09957176997700
 6  10.19231985648565 -0.38548562026203 -0.84479545004500
 6  9.98381508170817 -1.84651558765877 -1.22123558855886
 6  11.45988886578658 -0.26359013981398  0.02081294989499
 6  12.82341724942494 -0.42922697379738 -0.67571759465947
 6  13.99214868326833 -0.03752495529553  0.20993806130613
 6  15.30359648454846 -0.19949367846785 -0.49011725152515
 6  15.54736640554055 -1.63107074087409 -0.92240185788579
 6  16.38014212011201  0.35846020602060  0.39171367856786
 6  17.70042463186319  0.35978737713771 -0.24338015261526
 6  18.70340070957096  1.21749996699670  0.73605403840384
 6  20.17420608980898  1.19064939843984  0.21337610081008
 6  20.45431678547855  1.93161145834583 -1.19176016871687
 6  21.11053198399840  1.78952188848885  1.31823718711871
 1 -4.00050153465347  3.34756027742774  1.67643223012301
 1 -10.02434282698270  3.99147998299830 -0.54574996649665
 1 -10.21967525692569 -2.43651299209921 -1.34813146534654
 1 -2.67184364126413 -0.88982729662966  2.07416810801080
 1 -2.34178778397840  1.73619720232023  1.32949359975998
 1 -2.18199265676568  0.89469992289229  3.71371508500850
 1 -3.20069512951295  2.28698275577558  3.80617278267827
 1 -3.81323476617662  0.47782246624662  3.76090850365036
 1 -2.07553003790379 -1.42833279367937 -0.32491640084008
 1 -2.20443211571157  0.10971822222222 -0.60242028162816
 1 -0.33054657205721  0.34761937583758  1.03282368146815
 1 -0.14770257225723 -1.22308682388239  1.32135609080908
 1 -5.98626740214021  6.83504214831483  0.69991570077008
 1 -5.39709669906991  6.19159252235224  2.28551484858486
 1 -4.45854981098110  5.76756792319232  0.81393456905691
 1 -9.25433748624862  5.90760690879088 -0.81499172737274
 1 -8.79983119901990  7.97013775267527  0.03020264206421
 1 -7.79368883468347  7.18642504200420  1.58282666816682
 1 -11.95480958605861  3.20012033803380 -1.96444944964496
 1 -13.26312598179818  2.12742663386339 -1.44219541104110
 1 -12.51956368746875  2.80932958765877 -0.09714095809581
 1 -12.41037581598160 -1.63809325442544 -1.04511946684668
 1 -13.20271899079908 -0.30406714351435 -1.54867039453945
 1 -12.91810816341634 -1.62638732493249 -3.68712859735974
 1 -12.24218778297830 -0.14855939353935 -3.78429192489249
 1 -11.23672995229523 -1.74473934103410 -3.57541616161616
 1 -9.27716731973197 -4.77432817571757 -1.74342760686069
 1 -8.12775214001400 -5.79395940014001 -0.67543715671567
 1 -9.57972785768577 -5.00235525682568 -0.04798662126213
 1 -3.41033172907291 -3.33151640234023 -0.24364963646365
 1 -1.19436760326033 -4.38787522722272  3.36824974027403
 1 -3.02125173377338 -5.13321493909391  3.84131697059706
 1 -1.56776488798880 -6.17390666386639  2.95001895479548
 1  2.65065436953695 -1.45337717361736 -1.67772173717372
 1  2.65066254385439  0.07185146474647 -2.09905305750575
 1  4.15057596319632 -0.85874809000900  0.28208142414241
 1  4.04124308780878  1.65900461086109 -2.31313968366837
 1  5.73833924562456  2.21434169306931 -2.26396286448645
 1  5.60423773137314  0.67979908740874 -3.01739047004701
 1  6.64698676157616  1.56040004000400  0.28796143894389
 1  6.39016313571357 -0.15298333573357  0.76794651135114
 1  7.32421980668067 -1.03158239343934 -1.47043836743674
 1  7.82845528142814  0.60426363446345 -1.82868579217922
 1  9.05920797239724  1.16126401140114  0.25731336353635
 1  8.83413190189019 -0.66437194339434  0.84180204390439
 1  10.20373792519252  0.17041957965797 -1.91261615111511
 1  9.27610259575958 -1.84046202270227 -2.24524044884488
 1  10.90817337303730 -2.39428621252125 -1.67680192409241
 1  9.59714260026003 -2.56223816581658 -0.51948138783878
 1  11.45533321422142  0.76963919411941  0.54533602110211
 1  11.33835688908891 -0.83467942924292  0.82268288988899
 1  13.07467078597860 -1.39207736893689 -1.04473214081408
 1  12.96134988748875  0.39289998099810 -1.44532789408941
 1  13.77298873557356  1.04712726872687  0.70569791279128
 1  14.06827958105811 -0.75348495319532  1.01863838033803
 1  15.49534282278228  0.53034251925192 -1.35433979197920
 1  15.73525096799680 -2.40106039813981 -0.05917737163716
 1  14.82143519421942 -2.02455483108311 -1.66597401250125
 1  16.56181581098110 -1.47245277017702 -1.43225469496950
 1  16.19877507820782  1.37238507220722  0.58792533683368
 1  16.57643209040904 -0.12547172227223  1.41435419661966
 1  18.19168010671067 -0.70347689508951 -0.37562090249025
 1  17.77091415591559  0.76902422132213 -1.17476105190519
 1  18.20886167876788  2.12245640334033  0.89278728402840
 1  18.75291245154516  0.83357753875388  1.71583158345835
 1  20.55756066876688  0.21823797199720 -0.00266320232023
 1  20.03815792239224  2.78492205410541 -1.28994258765877
 1  21.53376762886289  2.19908656145615 -1.41944330763076
 1  19.77187109150915  1.37280909170917 -1.92481945094509
 1  21.15247122232223  1.34830293939394  2.27098671587159
 1  22.30421212751275  1.68309953965396  1.03612857915792
 1  20.95031476137614  2.85073515681568  1.55892633313331
>>>>>>> 8e03b5b5abfc0030b3aa597dc0de36371bfbd096

