%nproc=4
%Mem=2GB
# td=(NStates=1) CAM-B3LYP/6-31G(d,p) 

TD

0 1
<<<<<<< HEAD
12 -7.12727330033003  0.59782853095310  0.11420910831083
 6 -4.90594521252125 -2.05270644904490  0.52656918961896
 6 -4.82512244114412  2.76517496479648  1.10593695859586
 6 -9.37608234373437  3.10819631513151 -0.45154801450145
 6 -9.55548586228623 -1.72441795279528 -0.75142157125713
 7 -5.16914033863386  0.40425024312431  0.78638905720572
 6 -4.41348105420542 -0.69815963796380  0.79164718791879
 6 -2.95884488988899 -0.42367179287929  1.14438479267927
 6 -3.06196963536354  1.01612428072807  1.66398712941294
 6 -4.40415741064106  1.46642739153915  1.19190622052205
 6 -2.84089917201720  1.10899318741874  3.24767617651765
 6 -1.91031449244924 -0.65957121852185  0.04581854015402
 6 -0.38732615521552 -0.50934528172817  0.56054018331833
 6  0.59644078127813 -0.74478799169917 -0.51892727322732
 8  0.26231747184718 -1.07687309490949 -1.65227155885589
 8  1.87556936743674 -0.64432182858286 -0.08031482038204
 7 -7.04181462936294  2.59982557235724  0.20917961346135
 6 -6.02409168816882  3.37365834163416  0.69898343194319
 6 -6.32453970707071  4.78504279367937  0.73425411261126
 6 -7.69005171217122  4.81840247174717  0.39724811611161
 6 -8.12168644024402  3.53683287858786  0.05948849514952
 6 -5.35360331703170  5.90898336423642  1.04178893939394
 6 -8.49645744334433  5.99891092479248  0.05629261466147
 6 -8.32190608190819  7.20603672227223  0.62902915271527
 7 -9.16759903250325  0.71501436253625 -0.55121915561556
 6 -9.89719597929793  1.79991994509451 -0.67792411651165
 6 -11.20518961556156  1.52679101820182 -1.11317303680368
 6 -11.24716712061206  0.15968133223322 -1.16869558355836
 6 -9.92332801350135 -0.39126110041004 -0.80700571667167
 6 -12.32308113181318  2.50607117811781 -1.19722649744975
 6 -12.45094964126413 -0.70174758485849 -1.68293910241024
 6 -12.20119760816082 -1.09633204440444 -3.11484660326033
 7 -7.21945141344134 -1.40692030563056 -0.09555423242324
 6 -8.28134837463746 -2.19477464956496 -0.52240719591959
 6 -7.86665281088109 -3.57594586208621 -0.58243552085209
 6 -6.53762764686469 -3.51477581458146 -0.16712844474447
 6 -6.19543213961396 -2.15131341264126  0.07264006820682
 6 -8.65583305070507 -4.85679852225223 -1.01555003340334
 6 -5.35511998229823 -4.37432131563156  0.22633550615062
 8 -5.18983782168217 -5.54616910031003  0.13770080078008
 6 -4.25324890429043 -3.34705049484948  0.59067893319332
 6 -3.62309294019402 -3.61665688698870  1.87151752465247
 8 -3.91703330393039 -3.03113985018502  2.87294997609761
 8 -2.82954414811481 -4.65005972837284  1.81351993289329
 6 -2.32993358125813 -5.28598282738274  3.06066100160016
 6  2.95832834453445 -0.85801359595960 -1.10721192159216
 6  4.24033612261226 -0.54481265756576 -0.51739188818882
 6  5.12628611301130  0.31587785318532 -1.05527530023002
 6  5.05573399639964  1.16994964426443 -2.30490465576558
 6  6.46023035583558  0.41993384358436 -0.35346183138314
 6  7.67108464636464 -0.15257560446045 -1.09175612611261
 6  8.92116398899890 -0.05788091849185 -0.21035284808481
 6  10.28195882038204 -0.54832190389039 -0.80474144464446
 6  9.97973467366737 -2.01366230233023 -1.29439290429043
 6  11.46860973787379 -0.36309008980898  0.08690955955596
 6  12.75768067576758 -0.49398344944494 -0.67147717061706
 6  13.97013648204820 -0.11109231203120  0.28047511501150
 6  15.36846297119712 -0.13336706580658 -0.52375061486149
 6  15.76443811271127 -1.47281491529153 -1.02108172587259
 6  16.38685279117912  0.48218257825783  0.41284579177918
 6  17.83239782918292  0.64235563396340 -0.20209602420242
 6  18.80548091759176  1.28132634963496  0.78606903990399
 6  20.19806847604760  1.39040937443744  0.28133289648965
 6  20.16887824162416  2.20268856605661 -1.06284727742774
 6  21.17538846964696  2.06479941624162  1.33109847324732
 1 -3.97312879737974  3.34489001040104  1.57301188808881
 1 -10.07156754945495  3.96605744074407 -0.72014740624062
 1 -10.36128941834183 -2.23812315311531 -1.05965261746175
 1 -2.68999545644564 -1.25940425432543  1.92356304750475
 1 -2.38639224442444  1.63137672027203  1.04714536493649
 1 -1.85350980848085  0.53635408830883  3.41903561706171
 1 -2.88921398139814  2.35877993549355  3.51808397379738
 1 -3.67301074377438  0.54785946994699  3.66250866366637
 1 -1.87574005890589 -1.69312927332733 -0.30407431663166
 1 -2.00398207070707 -0.01251400100010 -0.96138617821782
 1 -0.40699421682168  0.55799041294129  0.98552895199520
 1 -0.14874267626763 -1.04988950415042  1.44648860406041
 1 -5.59593836923692  6.81621026512651  0.47976368556856
 1 -5.61085807520752  6.14721808490849  2.24849114621462
 1 -4.39370332633263  5.40806197259726  0.92264544014402
 1 -9.50640269276928  5.93763991209121 -0.68392862106211
 1 -8.92508372427243  8.16090682958296  0.41573119491949
 1 -7.52881234703470  7.34293069256926  1.33731211671167
 1 -11.97615172027203  3.21693201920192 -2.03122612731273
 1 -13.22455212441244  2.30116400760076 -1.36416760826083
 1 -12.57304903600360  3.06799545424542 -0.30084132813281
 1 -12.50502528092809 -1.48083752885289 -0.92396735163516
 1 -13.23987270617062 -0.14726146294629 -1.52400792829283
 1 -12.98554490709071 -1.67928261446145 -3.70166005050505
 1 -12.29662322652265 -0.12963750135013 -3.59611310701070
 1 -11.12429870917092 -1.36394126122612 -3.45201382138214
 1 -9.60627023002300 -4.58720946384638 -1.89380264436444
 1 -7.92032139693969 -5.73524352855286 -1.38958857185719
 1 -9.22795268016802 -5.11859688098810  0.13422159955996
 1 -3.21095179107911 -3.35619887058706 -0.05212048354836
 1 -1.30875904240424 -4.51559799949995  3.34252716801680
 1 -3.15763537213721 -5.24977659525953  3.86191903080308
 1 -2.16792490399040 -6.44503377657766  2.86250020292029
 1  2.95526483058306 -1.84639647554755 -1.46790075507551
 1  2.70157763536354 -0.17760348074807 -1.99989314151415
 1  4.44951585718572 -1.25353756895690  0.51882509850985
 1  4.06234519801980  1.22603131353135 -2.79596796649665
 1  5.78075348704871  2.12401266016602 -2.14280074827483
 1  5.86049335693569  0.78247935543554 -3.06471520252025
 1  6.60449251215122  1.54278827882788 -0.15263262046205
 1  6.59806392579258 -0.05169320672067  0.62322203890389
 1  7.25015239993999 -1.16820605580558 -1.34444576817682
 1  8.07213964986499  0.26181939003900 -2.12070499409941
 1  8.92779483108311  0.93131101610161  0.22466009820982
 1  8.64130261896190 -0.58838434463446  0.84940280398040
 1  10.59066661806180  0.14271680938094 -1.58868375787579
 1  9.17398238373837 -1.97181515801580 -2.00956688148815
 1  10.78068062376238 -2.48116490039004 -1.85761000490049
 1  9.85046793279328 -2.79197113911391 -0.25090453015302
 1  11.23047072797280  0.72641487168717  0.33187467496750
 1  11.45688874227423 -1.02877883918392  0.93142376397640
 1  12.70863418231823 -1.63042120332033 -1.12896056365637
 1  12.69000275277528  0.22769346034603 -1.54583794509451
 1  13.69003043974397  0.88887144314431  0.45781312431243
 1  14.02588534163416 -0.85178478317832  0.99740625712571
 1  15.20671395989599  0.75775526052605 -1.36196055405541
 1  15.95209265216522 -2.23823411551155 -0.24205565946595
 1  15.20330338103810 -2.12463483908391 -1.68873628872887
 1  16.62856248564857 -1.32131765666567 -1.74453592309231
 1  16.01445664636464  1.37679551325133  0.63686023032303
 1  16.51256570377037 -0.05305448054806  1.37420018121812
 1  18.01574251295130 -0.26081262866287 -0.34283762416242
 1  17.69940700520052  1.35486280518052 -1.10858443424342
 1  18.54365515811581  2.38615277297730  0.82399040434043
 1  18.83042020232023  0.94721890289029  1.79737973827383
 1  20.45402031473147  0.20859700790079  0.25354241824182
 1  20.03346745334533  3.17295085698570 -0.70984457785779
 1  21.20487473957396  2.22801945474547 -1.53773513681368
 1  19.32712661706171  1.75619743054305 -1.60986795579558
 1  21.31797777297730  1.38047615671567  2.27594721192119
 1  22.06915862216221  2.35688691839184  0.72688765506551
 1  20.78619834973497  2.89945002830283  1.82002244274427
=======
12 -7.04590516351635  0.50267901600160  0.12616030343034
 6 -4.84564918291829 -1.90412159055906  0.47942447514751
 6 -4.83599352825283  2.79350779807981  1.12593895879588
 6 -9.35380011551155  3.02740823632363 -0.39082194189419
 6 -9.55600591429143 -1.74535004600460 -0.81086751585159
 7 -5.16278970357036  0.44890470857086  0.82144256255626
 6 -4.37406711281128 -0.72521234323432  0.75235325852585
 6 -2.89158816421642 -0.39172859855986  1.17408776297630
 6 -3.00371380978098  1.10274294259426  1.71721245194519
 6 -4.41428842374237  1.50216096489649  1.22498952885289
 6 -2.74531961406141  1.38383067116712  3.14038544744474
 6 -1.90836429742974 -0.61784704610461  0.12842680098010
 6 -0.42035945854585 -0.50316466366637  0.54769889918992
 6  0.51944308150815 -0.69421293419342 -0.51709709020902
 8  0.25668690879088 -0.79735514311431 -1.76315264696470
 8  1.69606141664166 -0.43791118751875 -0.03129991889189
 7 -7.04186463436344  2.59434502430243  0.27697639313931
 6 -6.05544482348235  3.38752972877288  0.71861539513951
 6 -6.33483073617362  4.78933322272227  0.65472615981598
 6 -7.69187189418942  4.83725435693569  0.28974736603660
 6 -8.15974024562456  3.49213840914091  0.02748529482948
 6 -5.34761271797180  5.83891635753575  1.11212597309731
 6 -8.53480127772777  6.08088912261226  0.07639462486249
 6 -8.44164805610561  7.12490860946095  0.71259750955096
 7 -9.16819909250925  0.57901076217622 -0.49161319501950
 6 -9.85689194889489  1.76250620372037 -0.62063838793879
 6 -11.15764486108611  1.38309664876488 -1.13354507400740
 6 -11.28185058895890  0.05055041914191 -1.29299801380138
 6 -9.97911359205921 -0.46569854415442 -0.84749976607661
 6 -12.18837766146615  2.47565813681368 -1.40011678647865
 6 -12.44519906620662 -0.71067847794779 -1.93882469096910
 6 -12.32702019041904 -0.95716812801280 -3.42015713431343
 7 -7.26873634193419 -1.37463707730773 -0.08313299029903
 6 -8.27359759955996 -2.26093126522652 -0.55380033523352
 6 -7.85832197779778 -3.60901916941694 -0.59831710901090
 6 -6.47808169226923 -3.51955629262926 -0.09324105600560
 6 -6.26969956635664 -2.13650193149315  0.13543634783478
 6 -8.54541200860086 -4.79477231963196 -0.99128760716072
 6 -5.34717918821882 -4.39745362886289  0.23791666426643
 8 -5.03359219711971 -5.54801928532853  0.04012104280428
 6 -4.08214179357936 -3.19743553335334  0.51235110041004
 6 -3.62262289318932 -3.56311153245325  1.88515888878888
 8 -3.99190079067907 -3.13582031823182  3.01842452355235
 8 -2.60027122082208 -4.57832255465547  1.72017059795980
 6 -2.19234982288229 -5.24779900900090  2.82256719221922
 6  2.69780229192919 -0.69342713731373 -1.05379658005801
 6  4.02972506150615 -0.52329050535054 -0.36032618161816
 6  5.01997548194819  0.17223348874887 -0.76992676537654
 6  5.01211963496350  1.17277992729273 -1.96605077037704
 6  6.32500683348335  0.14651650185018 -0.07303378857886
 6  7.61876941484148 -0.21785213211321 -0.77676462696270
 6  8.82160403300330 -0.32321745214521  0.00990917811781
 6  10.16436706120612 -0.62536960866087 -0.67793876437644
 6  10.19843654385438 -2.05328626472647 -1.19541300630063
 6  11.38574145104510 -0.39605338613861  0.08507937653765
 6  12.82557746544654 -0.53569762086209 -0.58571859475948
 6  13.97985745414541 -0.00643184598460  0.25328239573957
 6  15.36285241014101 -0.19807353645365 -0.50971921172117
 6  15.62721439033903 -1.66722435623562 -0.89444906260626
 6  16.41588569446945  0.43920828082808  0.30629513671367
 6  17.72782737213721  0.74237563596360 -0.40944675927593
 6  18.77909827932793  1.34461267826783  0.53693412641264
 6  20.21918058725873  1.38694902840284  0.03741850505050
 6  20.37539889368937  2.15709400660066 -1.25796678937894
 6  21.13170410121012  2.04748768506851  1.11453681708171
 1 -3.96111759625963  3.43332885428543  1.23453804070407
 1 -10.13537393009301  3.69019985498550 -0.71128652015201
 1 -10.43013630303030 -2.33651299209921 -1.23513016521652
 1 -2.63387984488449 -1.08194650855085  2.23248393959396
 1 -2.17928153335333  1.55232881548155  1.29129978037804
 1 -1.92731718921892  0.82890334323432  3.48472218571857
 1 -2.73136819681968  2.53336739423942  3.44738690409041
 1 -3.58859230193019  0.86911159515952  3.61386379917992
 1 -2.17939042394239 -1.58925888628863 -0.31432534173417
 1 -1.82867453995400  0.00357760816082 -0.86538657825783
 1 -0.25400891829183  0.72539715361536  0.73782418151815
 1 -0.14471227322732 -1.06856137133713  1.51158511371137
 1 -5.64108288368837  6.89007765186519  0.92017772697270
 1 -5.24659164856486  5.70650401350135  2.19656595369537
 1 -4.41027498349835  5.57656882328233  0.81983515911591
 1 -9.20985303780378  5.94055020312031 -0.66037626582658
 1 -9.11807302320232  7.97769850875087  0.58572819461946
 1 -7.60512997879788  7.23085948544855  1.47706609210921
 1 -11.89558366346635  3.18645897189719 -2.10275328002800
 1 -13.18549821902190  1.94450834203420 -1.41237242874287
 1 -12.01184291539154  3.12623127782778 -0.38205944994500
 1 -12.56064084248425 -1.64312375747575 -1.39143409830983
 1 -13.34388310721072 -0.06640337713771 -1.67000252775277
 1 -13.21408776137614 -1.42453713991399 -3.68277816231623
 1 -12.40599416361636  0.19136459885989 -3.77610110581058
 1 -11.45838211751175 -1.43765863296330 -3.69100772077208
 1 -9.32475207820782 -4.78316905980598 -1.71186445054505
 1 -7.79727909270927 -5.64024402860286 -1.06695630863086
 1 -9.23346323122312 -5.12779780108011 -0.07105892849285
 1 -3.37731842774277 -3.48843209390939 -0.29475474697470
 1 -1.86348451495150 -4.32253869356936  3.79157207250725
 1 -3.06776638523852 -5.99681129872987  3.33783662256226
 1 -1.13388149964997 -5.74795406860686  2.41325527842784
 1  2.36296560066007 -1.68126996289629 -1.66088005300530
 1  2.62577005460546  0.09926420602060 -1.71284443664366
 1  4.39991089668967 -1.03694590979098  0.47506072207221
 1  4.01678064156416  1.07225593599360 -2.52857122682268
 1  5.38668408010801  2.19787004590459 -1.55377184538454
 1  5.67215452305231  0.63837494499450 -2.59958868986899
 1  6.45210727362736  1.46915091509151  0.52506514931493
 1  6.45054917431743 -0.50903894129413  1.03321303800380
 1  7.38817620232023 -1.22050128532853 -1.40464178777878
 1  7.82736517241724  0.65451865996600 -1.71218414201420
 1  8.86810886248625  0.55365325032503  0.57198483068307
 1  8.53038152685269 -1.17612311851185  0.90317818151815
 1  10.13795134653465  0.12993553125313 -1.59096398589859
 1  9.34987997349735 -2.20275825232523 -1.79240516531653
 1  11.10601315701570 -2.24153093699370 -1.88174241814181
 1  10.15252813881388 -2.79599154115412 -0.20204964466447
 1  11.25160284118412  0.74925715591559  0.64140562806281
 1  11.33730678407841 -0.98968492979298  1.04042466406641
 1  12.75787910681068 -1.70732889408941 -0.54922258985899
 1  12.89128288078808 -0.01940124912491 -1.72307566886689
 1  13.83463490019002  1.15229778577858  0.65515285828583
 1  14.05392814591459 -0.44199380408041  1.23378989548955
 1  15.25552884138414  0.51367085208521 -1.35928028602860
 1  15.70081752465247 -2.28881917401740 -0.02291374527453
 1  14.67172022272227 -1.82401477707771 -1.68965638073807
 1  16.46403603300330 -1.95487101200120 -1.50366183568357
 1  16.17894309500950  1.44295212891289  0.73753029732973
 1  16.58458290549055 -0.05118429352935  1.26454921612161
 1  18.18886982568257 -0.26492303970397 -0.96527986838684
 1  17.56454351885189  1.45581290019002 -1.29435301110111
 1  18.36073686628663  2.40260441814181  0.86807481278128
 1  18.98548570887089  0.77075125612561  1.44576457675768
 1  20.58156306900690  0.44161030923092 -0.12134507050705
 1  20.13762786938694  3.07070063196320 -1.01931552495250
 1  21.52646689878988  2.31006765956596 -1.51433279657966
 1  19.83155706010601  1.77690950175017 -2.04901187018702
 1  21.26055203040304  1.46338444754475  2.09260887808781
 1  22.18164987128713  1.93597482718272  0.88057302360236
 1  20.89456918681868  3.00243032633263  1.26836727722772
>>>>>>> 8e03b5b5abfc0030b3aa597dc0de36371bfbd096

