%nproc=4
%Mem=3GB
# td=(NStates=1) iop(3/107=0140000000,3/108=0140000000) CAM-B3LYP/6-31G(d,p) 

TD

0 1
12 -7.13365805750575  0.63530191369137  0.08574494449445
 6 -4.80177899439944 -1.99599683028303  0.44599000140014
 6 -4.80330636123612  2.76829554745475  1.28440854605461
 6 -9.34165092959296  3.00744829782978 -0.45387786308631
 6 -9.52513861186119 -1.70601236693669 -0.91253805870587
 7 -5.14659169036904  0.39715580618062  0.69110693469347
 6 -4.38761100840084 -0.75393653685369  0.81085898059806
 6 -2.87277349794979 -0.44413281128113  1.21164683378338
 6 -3.09731295819582  1.02393109470947  1.76757303660366
 6 -4.42935317001700  1.44985963706371  1.29053344724472
 6 -2.98886506730673  1.21189400870087  3.32911822642264
 6 -1.92258798849885 -0.54099008820882  0.04936874717472
 6 -0.46371208040804 -0.31984523252325  0.50999438173817
 6  0.51589351255126 -0.68289491139114 -0.55678546864686
 8  0.18486870367037 -1.07538131583158 -1.63502089518952
 8  1.73003160156016 -0.44111404980498 -0.18888427602760
 7 -7.10217786118612  2.65585879577958  0.39833075717572
 6 -6.09070921472147  3.44737850525053  0.99000487658766
 6 -6.30686559495950  4.76463332693269  0.96562482118212
 6 -7.67248203350335  4.81675348054805  0.44726085248525
 6 -8.11062058955896  3.44017095589559  0.09790778937894
 6 -5.44687672157216  5.89685915961596  1.35956611181118
 6 -8.50383039103910  6.02208247784778  0.06491710421042
 6 -8.29134754475448  7.20297944764476  0.60739479877988
 7 -9.14733377447745  0.67088408280828 -0.63661023492349
 6 -9.79828731503150  1.75244856915692 -0.70695350885088
 6 -11.17384133683368  1.52280172467247 -1.20580544024402
 6 -11.21675116231623  0.15992353815382 -1.37361739003900
 6 -9.96044364796480 -0.40339053245325 -0.98128032933293
 6 -12.21685262296230  2.52421766316632 -1.54172362506251
 6 -12.39202299519952 -0.65273139693969 -1.96089542014201
 6 -12.14264617351735 -1.06193638593859 -3.51474212541254
 7 -7.17327028942894 -1.44463929962996 -0.16793946904690
 6 -8.23205753205321 -2.20025857135714 -0.59182076197620
 6 -7.87186922672267 -3.62312286368637 -0.55884618441844
 6 -6.56444423492349 -3.65064804690469 -0.22464454615462
 6 -6.14713844554455 -2.19421737753775  0.11398323372337
 6 -8.74161650115012 -4.78289438783878 -0.73865724882488
 6 -5.28285374827483 -4.37146070947095  0.25387036113611
 8 -5.24746573887389 -5.67820467746775  0.36456240484048
 6 -4.23997850045005 -3.41005845324532  0.53139146074607
 6 -3.51976615341534 -3.71695963866387  1.86939290779078
 8 -3.78445122852285 -3.06281363926393  2.90143350155015
 8 -2.82064741754175 -4.81771038953895  1.72863190069007
 6 -2.38084704170417 -5.34849005490549  2.91923932433243
 6  2.80797711811181 -0.57914620352035 -1.20909442664266
 6  4.07071795699570 -0.35716098399840 -0.52174473727373
 6  5.06122161346135  0.41977850585059 -0.84213709070907
 6  5.17224094969497  1.44832250755075 -1.99175331033103
 6  6.34213049174918  0.32229284528453 -0.02016254065407
 6  7.67899935253525 -0.03935248324832 -0.88760908960896
 6  8.94637234883488 -0.03197501360136 -0.06267236963696
 6  10.21222668326833 -0.41114277747775 -0.80306602660266
 6  10.03016629322932 -1.88248612851285 -1.33855082108211
 6  11.46065072887289 -0.29521441254125  0.15262730023002
 6  12.75351308680868 -0.59607964146415 -0.52585009010901
 6  14.03968524032403 -0.08698441274127  0.27964437603760
 6  15.29804579557956 -0.29486857045705 -0.48029368186819
 6  15.55529180018002 -1.91889027732773 -0.75235706200620
 6  16.41828882158216  0.36467298459846  0.39331406610661
 6  17.87304489218922  0.50724445404540 -0.21464799179918
 6  18.82538295689569  1.30980905940594  0.52252550925093
 6  20.24612741714171  1.40002943544354 -0.00311360536054
 6  20.29586243204320  2.07211451655166 -1.34549924582458
 6  21.27695276227623  1.98943064296430  0.92867680768077
 1 -4.02671303480348  3.34169742114211  1.72440853665367
 1 -9.99794191749175  3.66282855735574 -0.56495102130213
 1 -10.25857028112811 -2.57605314041404 -1.20487830723072
 1 -2.81188847604760 -1.07620782348235  2.00047653835384
 1 -2.38205167146715  1.61814387548755  1.44742839183918
 1 -1.95665875227523  0.94806391279128  3.68886922432243
 1 -3.15880298939894  2.15332455525553  3.67403542574257
 1 -3.65332813331333  0.51676683098310  3.87612929812981
 1 -2.16455157415742 -1.51111178197820 -0.42114012111211
 1 -2.12788915791579  0.25434305410541 -0.69920665526553
 1 -0.20428585728573  0.69171875917592  0.84500836383638
 1 -0.20072849314932 -1.03117388398840  1.28347180548055
 1 -5.61676585428543  6.63680119211921  0.74399423072307
 1 -5.53804527582758  6.27315019641964  2.34221623412341
 1 -4.22649749434944  5.61239550755075  1.10378111071107
 1 -9.27154741454145  5.84800818281828 -0.66290764346435
 1 -8.77389645334533  8.27922764376438  0.27313708940894
 1 -7.54150208230823  7.35206204260426  1.37501646194620
 1 -11.98590906390639  3.22760190729073 -2.16962279377938
 1 -13.08841613931393  1.97759650205020 -1.87895362356236
 1 -12.58239927262726  3.02516985108511 -0.74876531603160
 1 -12.68077004190419 -1.53346426922692 -1.11935543644364
 1 -13.30010230933093  0.04484177367737 -2.11727748214822
 1 -12.76715191439144 -1.63074673677368 -4.00564152225222
 1 -11.66957736343634 -0.29628810011001 -4.27212619101910
 1 -11.25740057945795 -1.66208723592359 -3.55405368356836
 1 -9.10052467106711 -4.86100260106011 -1.77340340334033
 1 -8.13867825302530 -5.64202015531553 -0.54351430653065
 1 -9.71366554555456 -4.45298374677468 -0.15371764046405
 1 -3.52068958745875 -3.31449805540554 -0.22863060116012
 1 -1.33504689228923 -4.68820103350335  3.21505322292229
 1 -3.25432186948695 -5.33158268316832  3.74649568726873
 1 -2.08706922742274 -6.47083786858686  2.76953031413141
 1  2.59625768056806 -1.69865648844884 -1.69266071477148
 1  2.61493793509351 -0.05592750795079 -2.15036609410941
 1  4.10796128282828 -1.04640305410541  0.30919231943194
 1  4.21105641714171  1.26311185388539 -2.64207469316932
 1  5.32608954115411  2.47298772267227 -1.61662910131013
 1  6.26977654615462  1.11066225712571 -2.73537979487949
 1  6.52304048794880  1.37380736133613  0.41970158405841
 1  6.18349622172217 -0.37392472917292  0.84776097159716
 1  7.66797892069207 -0.96748742174217 -1.19732448964896
 1  7.78509106760676  0.85229433243324 -1.64705552845284
 1  9.14301034533453  0.98609810731073  0.46703913201320
 1  8.89783290409041 -0.74381273397340  0.73334945834583
 1  10.35419005080508  0.35995214301430 -1.61505666366637
 1  9.26977658675868 -2.12026030953095 -1.92625100700070
 1  11.06781592219222 -2.16468986828683 -1.85248060616062
 1  10.11849404650465 -2.43358747344734 -0.41691908560856
 1  11.60393203480348  0.59976641004100  0.56021379217922
 1  11.30331792729273 -1.02721401900190  0.97694401450145
 1  12.88224617711771 -1.77406482578258 -0.69210148164816
 1  12.72084791469147 -0.04586965096510 -1.67270160386039
 1  14.08860028032803  0.96834219751975  0.36612144084408
 1  14.03973228382838 -0.58636501540154  1.32177455145515
 1  15.28876927832783  0.38006140314031 -1.49840110891089
 1  15.54210800760076 -2.23859320052005  0.39520138463846
 1  14.85584722912291 -2.15760028002800 -1.45113648714871
 1  16.52993127272727 -2.00026092309231 -1.17355386868687
 1  16.13476675017501  1.39354768846885  0.72456837313731
 1  16.64878895669567 -0.11938822362236  1.28138663336334
 1  18.36391312901290 -0.52319883388339 -0.24015421102110
 1  17.96949425902590  0.83300219431943 -1.18434417801780
 1  18.38613767066706  2.31245251325132  0.89285123192319
 1  18.81877784028403  0.78291313081308  1.44322756825683
 1  20.33611344364436  0.33987498509851 -0.32880698849885
 1  19.62861968046805  3.05600637713771 -1.17336952165217
 1  21.31088488928893  2.05796693879388 -1.61890987218722
 1  19.79325772337234  1.56501679187919 -2.16057444184418
 1  21.22013586708671  1.59087472837284  2.16570023882388
 1  22.37437533033303  1.77885835653565  0.67335398899890
 1  21.05069514801480  3.17056317351735  0.81447858455845

