%nproc=4
%Mem=2GB
# td=(NStates=1) CAM-B3LYP/6-31G(d,p) 

TD

0 1
<<<<<<< HEAD
12 -7.12207278027803  0.63033178127813  0.00062775017502
 6 -4.87132175017502 -1.85009618801880  0.41773830653065
 6 -4.81231116001600  2.85278372567257  1.09911627652765
 6 -9.48466320182018  3.11266676217622 -0.45413827352735
 6 -9.55917623132313 -1.89821533253325 -0.84467089618962
 7 -5.15144856945695  0.54285410351035  0.63307372567257
 6 -4.40976068216822 -0.59099892189219  0.74805282848285
 6 -2.99206821222122 -0.28184761046105  1.16248660286029
 6 -3.02589602800280  1.20400306860686  1.61800253095310
 6 -4.35109210411041  1.53926467526753  1.04797182708271
 6 -2.95058014011401  1.40611289938994  3.10100150905091
 6 -1.85440890189019 -0.54843010441044  0.04237819611961
 6 -0.35867328992899 -0.35536988418842  0.57402153145315
 6  0.60482161936194 -0.59209272217222 -0.53718909940994
 8  0.23660490059006 -0.93710911851185 -1.66019235093509
 8  1.82557436793679 -0.42839023542354 -0.24483127202720
 7 -7.15762621052105  2.63614920472047  0.34165286078608
 6 -6.10985026402640  3.33974495029503  0.84771830543054
 6 -6.52891014411441  4.65807009640964  0.88775946314631
 6 -7.87636034303430  4.82242287378738  0.32440083138314
 6 -8.24301857345735  3.45745494079408  0.05872841914191
 6 -5.65418337503750  5.91567403330333  1.25016977747775
 6 -8.74186198379838  6.02750378407841  0.21551853725373
 6 -8.51955584688469  7.17844396299630  0.86774302410241
 7 -9.14692696529653  0.62297515861586 -0.62593662736274
 6 -9.88203446314632  1.74141409450945 -0.80490681478148
 6 -11.28878797539754  1.39157749684969 -1.17089880938094
 6 -11.32726513041304 -0.06478111401140 -1.17989670367037
 6 -9.98175385608561 -0.46381835613561 -0.88748376447645
 6 -12.40428925262526  2.34832540354035 -1.28957573237324
 6 -12.43005755205520 -0.91679909000900 -1.66435724422442
 6 -12.51266875527553 -1.19462187338734 -3.15866098469847
 7 -7.21166063436344 -1.36649626322632 -0.17654233123312
 6 -8.27882812261226 -2.29202437453745 -0.51615657085709
 6 -7.74349049464946 -3.66788505600560 -0.44969224652465
 6 -6.47276116021602 -3.51793613061306 -0.01683341524152
 6 -6.21933452985299 -2.08945722702270 -0.01208840464046
 6 -8.49784725212521 -4.93854669706971 -0.79310778917892
 6 -5.35308977927793 -4.28131201470147  0.11918479107911
 8 -5.24416325422542 -5.45985046844684  0.12785981668167
 6 -4.14891847124712 -3.24079986978698  0.48579844514451
 6 -3.54266489738974 -3.55367058835884  1.87253762666267
 8 -3.82088368896890 -3.07846458265827  2.89383206430643
 8 -2.68487968166817 -4.59503422582258  1.72306088698870
 6 -2.16314690259026 -5.15818004710471  3.01861679717972
 6  2.88581109280928 -0.69036683128313 -1.08103930433043
 6  4.11694378337834 -0.36479465576558 -0.35814596359636
 6  5.13181666606661  0.35895216061606 -0.88209798249825
 6  5.26470489348935  1.21300394969497 -2.13336750205021
 6  6.49127346014601  0.40118196839684 -0.20696718191819
 6  7.66021355925593 -0.30522086898690 -1.01925887638764
 6  8.95512738533853 -0.23467859825983 -0.11586339913991
 6  10.26511713621362 -0.53158022972297 -0.86326729722972
 6  10.17045374557456 -2.14072500860086 -1.30003346834683
 6  11.39813269016902 -0.22553633443344  0.04029489808981
 6  12.80800570827083 -0.56808085918592 -0.71565158805881
 6  13.99644911331133 -0.12155335813581  0.14046111361136
 6  15.40556668156816 -0.15049877897790 -0.48244648444844
 6  15.73476514541454 -1.63111074487449 -1.10828044574457
 6  16.44629873577358  0.35933029302930  0.51922642984298
 6  17.89931452085208  0.54629602800280 -0.18954476907691
 6  18.95627599709971  1.21877009400940  0.75522595559556
 6  20.34564323352335  1.31704203770377  0.24890965416542
 6  20.49603095689569  1.89557785498550 -1.16209720242024
 6  21.25153608440844  1.99645258155816  1.39103446684668
 1 -4.10930241474147  3.52557807920792  1.45127971487149
 1 -10.27136752945295  3.86640747574757 -0.70724611611161
 1 -10.33449673907391 -2.71395073587359 -1.16725337753775
 1 -2.74754121102110 -0.81987030093009  1.99883057425743
 1 -2.17362096729673  1.61243482608261  0.91577222762276
 1 -1.87139159665967  1.10027047994799  3.52934664816482
 1 -3.28277333733373  2.46427048454846  3.37505967136714
 1 -3.64385782848285  0.72845752975297  3.55054746754675
 1 -1.82857534243424 -1.76109607000700 -0.14184809400940
 1 -1.84436610911091  0.00934818521852 -0.77708774837484
 1 -0.16766028342834  0.68809342324232  0.96111651075108
 1 -0.18821662366237 -1.07290180538054  1.38925288048805
 1 -5.71092986838684  6.83433207730773  0.56214192339234
 1 -5.67274426382638  6.07857122022202  2.26157245434543
 1 -4.45012896889689  5.68057922432243  1.11646482208221
 1 -9.73059511201120  5.78659480758076 -0.47035726392639
 1 -9.45016623252325  7.77978871777178  0.88086770857086
 1 -7.48538800460046  7.25065146464647  1.49419780528053
 1 -12.15109921502150  3.27919824582458 -1.92754575927593
 1 -13.39332900210021  2.06481037223722 -1.64013520502050
 1 -12.80093182428243  2.81605025972597 -0.24204544854485
 1 -12.38708348674868 -1.94500394549455 -1.13517847274727
 1 -13.40402912181218 -0.37215395219522 -1.28134366186619
 1 -13.41931828442844 -1.71693637983798 -3.40130001450145
 1 -12.71944550875088 -0.18561309890989 -3.63565706140614
 1 -11.79373565286529 -1.69261412851285 -3.59067768776878
 1 -8.88114771777178 -4.74260500340034 -1.83695695979598
 1 -7.92532189698970 -5.93121312551255 -0.81767138013801
 1 -9.21610149504950 -5.12531755305531 -0.06404822742274
 1 -3.49444013991399 -3.42807605830583 -0.36438170967097
 1 -1.62539070557056 -4.40269670937094  3.69309222452245
 1 -3.06460606920692 -5.47295891349135  3.41693453235324
 1 -1.56306441794179 -6.07124639783978  2.89839379227923
 1  2.87134643874387 -1.89574141004100 -1.48185215021502
 1  2.47678515611561 -0.04921064146415 -1.91228438063806
 1  4.32372327792779 -0.71979419461946  0.66440965696570
 1  4.20440940444044  1.17195590599060 -2.64659302900290
 1  5.56492190389039  2.23094335323532 -1.88461492969297
 1  5.95746305390539  0.73017412491249 -2.96222495349535
 1  6.58069013191319  1.50527452745274 -0.04489184638464
 1  6.46735085448545 -0.08040607800780  0.71025074177418
 1  7.28748613331333 -1.32552178737874 -1.13624494809481
 1  7.78195063096310  0.02669587768777 -2.00092301590159
 1  9.05636768836884  0.80929881488149  0.17579521172117
 1  8.97597608630863 -0.76468197439744  0.72855071877188
 1  10.15899345074507  0.00522306000600 -1.84779966946695
 1  9.26394137963796 -2.16685466196620 -1.85197112191219
 1  10.91732428812881 -2.46258304220422 -2.01234547844785
 1  9.79776266226623 -2.61183312531253 -0.34296373607361
 1  11.52271995289529  0.83041527172717  0.42807429492949
 1  11.29715276867687 -0.87179314061406  1.01732235383538
 1  12.67870118901890 -1.56206436763676 -0.84942260986099
 1  12.91880563306331 -0.03573288228823 -1.75122848414842
 1  13.83814525122512  0.95770832683268  0.54815215821582
 1  14.06725947904791 -0.68828843354335  0.98834535103510
 1  15.56863015151515  0.26267575257526 -1.32246660466047
 1  15.90640808370837 -2.17329762186219 -0.32570402430243
 1  14.79725277597760 -1.91503387898790 -1.79324673977398
 1  16.67636726612661 -1.49703522842284 -1.57470894039404
 1  16.23642884358436  1.38740657435744  0.89846639093909
 1  16.66890133733373 -0.29360853595360  1.41262402360236
 1  18.18525946464646 -0.37624417181718 -0.21838517891789
 1  17.77138420292030  0.97413473237324 -0.99903347914791
 1  18.50641143374337  2.33508766646665  0.85904390969097
 1  18.96700386068607  0.58864304530453  1.59853985428543
 1  20.63262817551755  0.35613176137614  0.20558762276228
 1  20.09425353195319  2.98837239913991 -1.31959555295530
 1  21.43741799389939  2.02206885968597 -1.48377974127413
 1  20.09839374377438  1.33989580038004 -1.84405137413741
 1  21.02874885008501  1.45633374247425  2.34176379357936
 1  22.41615332163216  1.84598582828283  1.43112807910791
 1  20.91641137103710  3.07974805810581  1.50611105160516
=======
12 -7.07066763976398  0.63137188528853  0.07172485988599
 6 -4.80834545254525 -1.95357653605361  0.49008554125413
 6 -4.89603953285329  2.89729817711771  1.10740710561056
 6 -9.44907964346435  3.05198069356936 -0.36118897859786
 6 -9.52988330203020 -1.80311582258226 -0.83621005010501
 7 -5.04643806840684  0.45563538163816  0.66752717101710
 6 -4.31947165326533 -0.67050687268727  0.76833485668567
 6 -2.86595560096010 -0.35971539723972  1.22524287848785
 6 -3.00497393579358  1.14639730803080  1.54847557825783
 6 -4.49298629352935  1.55353610241024  1.14430146004600
 6 -2.77974305640564  1.29178146624662  3.16355776467647
 6 -1.89469293029303 -0.55366062746275  0.12987694599460
 6 -0.39350677327733 -0.42772711991199  0.63346747604760
 6  0.55787692489249 -0.52280579347935 -0.53539892039204
 8  0.26507774787479 -0.77600300790079 -1.73474980668067
 8  1.85041685218522 -0.40072746914691 -0.11826861576158
 7 -7.10933138103810  2.55596118591859  0.30908960446045
 6 -6.01518079707971  3.39709068486849  0.74758829242924
 6 -6.52264951805181  4.71739602900290  0.83249393659366
 6 -7.83437614461446  4.84868550005000  0.33393178447845
 6 -8.13833810541054  3.43681287658766  0.08696124242424
 6 -5.63105106180618  5.92045451135114  1.11029579007901
 6 -8.65638343594359  5.94417545124513  0.16246323172317
 6 -8.58801269256926  7.11933805240524  0.82045829562956
 7 -9.04529680228023  0.54951781288129 -0.57017105080508
 6 -9.82058831853185  1.70021997509751 -0.71611793589359
 6 -11.19002809940994  1.39418775787579 -1.15264698419842
 6 -11.26081848574857  0.06224158825883 -1.22334104810481
 6 -9.91631731243124 -0.46695867016702 -0.91381639773977
 6 -12.28368719241924  2.37405797679768 -1.48338511331133
 6 -12.45171971827183 -0.64832224232423 -1.78810961946195
 6 -12.28652614101410 -1.09467187838784 -3.22769788838884
 7 -7.14538400670067 -1.31943155675568 -0.25720039703970
 6 -8.18693893369337 -2.15500067216722 -0.62006696189619
 6 -7.79946609220922 -3.60052832033203 -0.61958923622362
 6 -6.46488037213721 -3.56082041904190 -0.24502623452345
 6 -6.17138973537354 -2.17636591789179  0.12174497869787
 6 -8.57196466386639 -4.84791763416342 -0.89357783618362
 6 -5.25961043134313 -4.38958284178418  0.25871874447445
 8 -5.12472131003100 -5.58058254165416  0.14548157885789
 6 -4.11504508390839 -3.40663645344534  0.58009787508751
 6 -3.47987861876188 -3.69023424472447  1.97759813271327
 8 -3.72444404500450 -3.10626736293629  3.05490817191719
 8 -2.73322451615161 -4.73314803720372  1.85009359025903
 6 -2.15315590349035 -5.09190341944194  3.09256419191919
 6  2.80261277297730 -0.66104389898990 -1.05794699509951
 6  4.11292338133813 -0.46970514681468 -0.49158930793079
 6  5.20289377377738  0.39117538293829 -0.83077284998500
 6  4.98371679467947  1.21967461676168 -2.07872203750375
 6  6.51639597239724  0.44937678787879 -0.21142762796280
 6  7.57648518641864 -0.13313366026603 -0.91566851735174
 6  8.95669754235424 -0.12440757115712 -0.06595840864086
 6  10.26055668016802 -0.50211728342834 -0.87275824632463
 6  10.12807950815081 -1.95392632873287 -1.36795026002600
 6  11.44369724662466 -0.37300108090809 -0.04958408980898
 6  12.69468437613761 -0.56501055215522 -0.68154817771777
 6  13.85591505990599 -0.13417462026203  0.19355642314231
 6  15.21732785768577 -0.17098082718272 -0.50516875667567
 6  15.53126479537954 -1.58166580038004 -0.95753537123712
 6  16.35234934083408  0.24862922292229  0.43794830203020
 6  17.81090567996799  0.45441684008401 -0.18553436803680
 6  18.69796016551655  1.21593981098110  0.66695712871287
 6  20.17180584978498  1.23138347184718  0.17767253045305
 6  20.32850420422042  2.11096939413941 -1.08598959165917
 6  21.12072300310031  1.88371130743074  1.24927029042904
 1 -4.30302178667867  3.71651717311731  1.41779636653665
 1 -10.16949734243424  3.83679451445144 -0.45423081458146
 1 -10.20955424482448 -2.51097043784378 -1.04085073727373
 1 -2.69433589048905 -1.04471278517852  2.14638532973297
 1 -2.23682728792879  1.74675825842584  1.18511916231623
 1 -1.73163762126213  1.13634408730873  3.28818253175318
 1 -3.04270933093309  2.18511256875688  3.50397256265627
 1 -3.45986942964296  0.68626331033103  3.84468688148815
 1 -2.05710819571957 -1.39446940734073 -0.48952286148615
 1 -2.08658033053305  0.17172442284228 -0.72406244584458
 1 -0.13000651805181  0.67902251615162  1.05787618671867
 1 -0.18901670367037 -1.24904942014202  1.43369732493249
 1 -6.03318209360936  6.83456210031003  0.43389909910991
 1 -5.84426141554155  6.32345570867087  2.07722401950195
 1 -4.35961991799180  5.81482264866487  1.01760493609361
 1 -9.21265331783178  5.86075222332233 -0.68929915811581
 1 -9.39866108200820  7.92265300420042  0.55913553535354
 1 -7.97043650945094  7.21191759125913  1.77078546404640
 1 -11.87537164226423  3.06851717771777 -2.44075708040804
 1 -13.03907357655766  1.89007289848985 -2.11335252675268
 1 -12.71581331243124  2.86146480118012 -0.59454069806981
 1 -12.57852263066307 -1.71988143324332 -1.35262021692169
 1 -13.31908062696270 -0.07831456825683 -1.39502503000300
 1 -13.31888824142414 -1.76000068626863 -3.40514039853985
 1 -12.23788735293529 -0.07917245484548 -3.68490198589859
 1 -11.51194747404741 -1.86925179227923 -3.44245286528653
 1 -8.91546114911491 -4.97791853475348 -1.97808107220722
 1 -8.15748511331133 -5.72250225442544 -0.49074868786879
 1 -9.36499638453845 -4.73217823912391 -0.35561738433843
 1 -3.37271796769677 -3.63769702040204 -0.16965223672367
 1 -1.66790495699570 -4.30701714141414  3.47426034133413
 1 -2.85816542514251 -5.33110472807281  3.78316115501550
 1 -1.48691680318032 -5.92558183138314  2.88113206610661
 1  2.75049435353535 -1.69541137703770 -1.36407037203720
 1  2.76019349694969 -0.00825654605461 -1.98520167236724
 1  4.25024593019302 -0.86390860606061  0.41312452845284
 1  4.15433439693969  1.30521923232323 -2.59058742844284
 1  5.28612402410241  2.27260751965196 -1.90049651785179
 1  5.97875518311831  1.00411151865186 -2.72030076107611
 1  6.82503456635664  1.37396139613961  0.14492713551355
 1  6.22230635003500 -0.16561459885989  0.71358107480748
 1  7.37528491319132 -1.05536477167717 -1.46745806940694
 1  7.71982441834183  0.58367157525753 -1.72227515111511
 1  8.95847789938994  1.00738862386239 -0.07897026482648
 1  8.56247473617362 -0.70034554075408  0.79466733043304
 1  10.32007955935594  0.16499903760376 -1.72282717221722
 1  9.08666365186519 -2.13583155965597 -1.81917784258426
 1  10.97735029072907 -2.28891567546755 -1.98665290919092
 1  10.20325321132113 -2.57449939193919 -0.42619205890589
 1  11.46425410631063  0.59708193839384  0.46051753925392
 1  11.46143919731973 -0.92259822112211  0.89650027162716
 1  12.70919423832383 -1.57905606680668 -0.97642531013101
 1  12.72616636913691  0.05036572757276 -1.53515687698770
 1  13.72127356405641  0.82882543854385  0.49496683968397
 1  14.06059881298130 -0.79092869756976  1.07415393189319
 1  15.25753904240424  0.28356784178418 -1.62038639663966
 1  15.53065050795080 -2.29833012511251 -0.12196365026503
 1  14.94222727342734 -2.12622499809981 -1.94290170527053
 1  16.37404703410341 -1.55112063696370 -1.54938640814081
 1  16.10483568426843  1.21003883758376  0.76208275257526
 1  16.41495594279428 -0.33404257935794  1.23447620882088
 1  18.32522346104610 -0.48719526692669 -0.47547088748875
 1  17.67947501200120  1.04931225012501 -1.17636121192119
 1  18.31839263186319  2.18045220292029  0.92643064836484
 1  18.91808896919692  0.81827600860086  1.77605760606061
 1  20.48930384308431  0.23535968416842 -0.14518745474547
 1  19.87725183178318  2.97936149804980 -1.18672226562656
 1  21.33977822992299  2.32690934373437 -1.29216057935794
 1  19.98584248864887  1.57199901070107 -2.06173314231423
 1  21.09728570377038  1.18124623372337  2.03129274647465
 1  22.25956766306631  2.07458868856886  0.76147111341134
 1  20.76175590549055  2.77232731603160  1.53345378587859
>>>>>>> 8e03b5b5abfc0030b3aa597dc0de36371bfbd096

