%nproc=4
%Mem=3GB
# td=(NStates=1) iop(3/107=0140000000,3/108=0140000000) CAM-B3LYP/6-31G(d,p) 

TD

0 1
12 -7.17350204190419  0.59365774927493  0.06570294029403
 6 -4.82828164466447 -2.01162839343934  0.52186758915892
 6 -4.82988901950195  2.87009572747275  1.18221832703270
 6 -9.39302606710671  3.09774732773277 -0.39849232453245
 6 -9.50479657765777 -1.70165193089309 -0.83771057595760
 7 -5.13729076027603  0.43122921352135  0.85238306230623
 6 -4.36412866016602 -0.69216035923592  0.85254314901490
 6 -2.99181540214021 -0.31497989598960  1.22109777887789
 6 -3.03370659755976  1.10079878147815  1.76131241054105
 6 -4.42639287398740  1.45901055215522  1.26064045794579
 6 -2.81665784658466  1.24487730703070  3.21960727532753
 6 -1.90709643934393 -0.58085407460746  0.01273508380838
 6 -0.48593430263026 -0.51615486348635  0.51806518881888
 6  0.51516343954395 -0.82432905480548 -0.57530732083208
 8  0.18804902170217 -1.06451022872287 -1.78748614171417
 8  1.74623322172217 -0.42722266066607 -0.21378676627663
 7 -7.08303594699470  2.64133734363436  0.37769869396940
 6 -6.09262940674067  3.38823259065907  0.83107898399840
 6 -6.44587949634963  4.80315717931793  0.81076933563356
 6 -7.66012079737974  4.88728053325333  0.31961808820882
 6 -8.13028255575558  3.43664060286029  0.18055605420542
 6 -5.51657369126913  5.86976645034503  1.32358251345135
 6 -8.45205521352135  5.96629689928993  0.04827544004400
 6 -8.40610902090209  7.18546769646965  0.59588364766477
 7 -9.07635667676768  0.69131612601260 -0.55571214511451
 6 -9.82850033633363  1.85016834113411 -0.80160297379738
 6 -11.20200415311531  1.45070451495150 -1.20672553225323
 6 -11.24689417661766  0.11378892469247 -1.28673870217022
 6 -9.95023262686269 -0.34461465486549 -0.87397959925993
 6 -12.24427536523652  2.48681392279228 -1.34298375107511
 6 -12.40441423432343 -0.76423254705471 -1.69142847344734
 6 -12.33469537843784 -1.09466965926593 -3.25063571477148
 7 -7.32022498489849 -1.38332316801680 -0.09963263836384
 6 -8.23993832013201 -2.23161170667067 -0.51707328722872
 6 -7.83310535033503 -3.58815936733673 -0.54269456925693
 6 -6.53588137863786 -3.57690067216722 -0.06060814251425
 6 -6.22354608630863 -2.20461841764176  0.10895273067307
 6 -8.68461080058006 -4.83690978937894 -0.69461284438444
 6 -5.29017448034803 -4.32786635003500  0.20657563166317
 8 -5.11884287658766 -5.55585244224422  0.14923087168717
 6 -4.14770927352735 -3.28139558695870  0.51986030763076
 6 -3.54750892769277 -3.68385632833283  1.92073804230423
 8 -3.80634341774177 -3.09124648254825  2.94142750095010
 8 -2.79884523732373 -4.81435005350535  1.76674571207121
 6 -2.18369732673267 -5.25940114601460  2.99215661606161
 6  2.74127044744474 -0.66800508940894 -1.30558407560756
 6  4.08379926512651 -0.39146441434143 -0.58724128692869
 6  5.14842033333333  0.39232576057606 -1.03584646164616
 6  5.05042876847685  1.28774644994499 -2.27755189018902
 6  6.36734301300130  0.40728134413441 -0.28049857425743
 6  7.66673812641264 -0.16672522052205 -1.13206353505351
 6  8.92390010161016 -0.09242105820582 -0.26998310071007
 6  10.22117757835784 -0.50228189138914 -0.95126084608461
 6  10.08861213781378 -1.90090797069707 -1.43741070707071
 6  11.47665232903290 -0.20680557165717 -0.07593555605561
 6  12.79849758525853 -0.43154318781878 -0.77443494859486
 6  14.01148242004200 -0.09719543384338  0.10814722632263
 6  15.32542853385339 -0.11235031863186 -0.46332198469847
 6  15.64220049104911 -1.57801618991899 -0.88575040134013
 6  16.43490048274828  0.38911542884288  0.45500023472347
 6  17.89125671337134  0.55631936153615 -0.11389791679168
 6  18.80852127072707  1.20035811431143  0.88963221992199
 6  20.27576038043804  1.19618905140514  0.34751145714571
 6  20.35648849464947  2.05396270137014 -0.94670936683668
 6  21.23226829382938  1.83158485838584  1.32497643764376
 1 -4.08121848534853  3.59356260766077  1.61767786358636
 1 -10.12200432373237  3.95505778027803 -0.66304083028303
 1 -10.32909733383338 -2.45207074217422 -1.17732555195520
 1 -2.68080536773677 -1.07221742444244  1.97275376607661
 1 -2.53607707400740  2.03476553765377  1.15673932293229
 1 -1.84130721712171  0.90467957435744  3.49039937733773
 1 -2.88875598469847  2.27721694449445  3.66929495169517
 1 -3.48757155765577  0.53578873317332  3.67218890409041
 1 -2.30796591559156 -1.46528719951995 -0.56092409950995
 1 -1.91466783578358  0.07748536833683 -0.59280601520152
 1 -0.14849027772777  0.48728831613161  0.92318618161816
 1 -0.15987440774077 -1.10314108070807  1.27914137243724
 1 -5.78650282798280  6.79807731973197  0.74841467276728
 1 -5.48794026532653  6.12529541094109  2.38728074057406
 1 -4.51770661526153  5.55423969196920  1.18498923152315
 1 -9.25349560936094  5.88969235123512 -0.83433478617862
 1 -9.11756081978198  8.14584430543054  0.47849762546255
 1 -7.62411034313431  7.16991382778278  1.31325028532853
 1 -11.85296576957696  3.33442258935894 -2.05807163866387
 1 -13.25743304100410  2.04805354775478 -1.82643837203720
 1 -12.54222525522552  2.77850518461846 -0.25941638113811
 1 -12.36676864176418 -1.70424134693469 -1.09067256815682
 1 -13.38170046914692 -0.24623733423342 -1.42260801520152
 1 -13.09496469566957 -1.72197585968597 -3.47953891199120
 1 -12.44722512821282 -0.35377384868487 -3.95205418381838
 1 -11.41363620302030 -1.60635166236624 -3.53236151435143
 1 -8.85894051265126 -4.81099760056005 -1.84182024502450
 1 -7.90587497269727 -5.62036799009901 -0.65700565566557
 1 -9.55050922992299 -4.88360680908091  0.00692842414241
 1 -3.29637715621562 -3.52307891349135 -0.11485922402240
 1 -1.90983437103710 -4.26297851125113  3.49153087068707
 1 -2.97992442974298 -5.97742726762676  3.67487852555256
 1 -1.30953147364736 -5.90110089488949  2.74427778887889
 1  2.41749980478048 -1.80068669146915 -1.76758820752075
 1  2.70136657795780  0.05902398719872 -2.03417447494750
 1  4.53208369506951 -1.07658607240724  0.07732913311331
 1  4.02468778027803  1.21865740844084 -2.82557304300430
 1  5.15541247344734  2.42131255515552 -1.82733017141714
 1  6.00239980848085  1.13045423632363 -2.78139439633963
 1  6.63281146504651  1.45515549614961  0.01017063096310
 1  6.22250012211221 -0.29696703340334  0.71866806230623
 1  7.28064018681868 -1.15412608560856 -1.33748850605060
 1  7.68681123962396  0.52548165116512 -2.05971679457946
 1  8.86212225652565  1.04223372087209  0.10278270637064
 1  8.68853197399740 -0.76197455015502  0.71408753215322
 1  10.30339497129713  0.00078622642264 -1.85529068706871
 1  9.15300490959096 -2.39305758925893 -1.85995437733773
 1  10.95475461606161 -2.26606000530053 -2.21285664376438
 1  10.25911810891089 -2.46636075077508 -0.45062245594559
 1  11.47721936353635  0.85908234163416  0.39541731253125
 1  11.40325792129213 -0.96304760236024  0.85454177427743
 1  12.85284323682368 -1.67339475877588 -0.84955722722272
 1  12.89821565146515  0.06941187718772 -1.79972430613061
 1  13.83500492079208  1.01570693399340  0.31840666936694
 1  13.94564287488749 -0.56722310121012  1.22610498449845
 1  15.48766916831683  0.51530492749275 -1.41239250805080
 1  15.40009380618062 -2.23431277247725  0.09117098159816
 1  15.06177782218222 -2.06145066506651 -1.66130750425043
 1  16.67955623522352 -1.75926682368237 -1.13648016131613
 1  16.22378565206521  1.33521185488549  1.03174909120912
 1  16.48296237403740 -0.27301358615862  1.33426192089209
 1  18.30782752045205 -0.58066458045805 -0.57843803940394
 1  17.86118342794279  1.23179207330733 -0.87275301890189
 1  18.57649670657065  2.10236150415042  1.20169211601160
 1  18.86949291179118  0.39008384788479  1.71740498599860
 1  20.55281511381138  0.05077607520752  0.21948784098410
 1  19.88833565206521  3.06579735623562 -0.83194537923792
 1  21.33562736353635  2.26305744784478 -1.29728770997100
 1  19.81349974757476  1.52479276947695 -1.88646703110311
 1  21.22901675517552  1.24045968686869  2.21952562136214
 1  22.11624951775178  1.61897236793679  0.88752540614061
 1  21.05990606910691  2.78558467566757  1.83135027172717

