%nproc=4
%Mem=2GB
# td=(NStates=1) CAM-B3LYP/6-31G(d,p) 

TD

0 1
<<<<<<< HEAD
12 -7.19817039003900  0.72068081618162 -0.04732704530453
 6 -4.90335495349535 -1.90198137653765  0.49441597429743
 6 -4.82383231213121  2.83554200150015  1.14272063696370
 6 -9.38546328182818  3.05111060656066 -0.41671453115312
 6 -9.66950726442644 -1.74756026702670 -0.86806323542354
 7 -5.24712813741374  0.42534235233523  0.75443586188619
 6 -4.37075678177818 -0.65364518651865  0.73020104330433
 6 -3.05103410881088 -0.38670809650965  1.18383873807381
 6 -3.06328976737674  1.03228589688969  1.69599032973297
 6 -4.45322231713171  1.51271202000200  1.08652568246825
 6 -3.02466754885489  1.18064035213521  3.17429883878388
 6 -1.90981444244424 -0.57349261066107  0.06315027332733
 6 -0.46731415401540 -0.54845919311931  0.50096422572257
 6  0.51118225542554 -0.80105361826183 -0.59437481798180
 8  0.25590683078308 -1.29403481108111 -1.68690502220222
 8  1.73011482198220 -0.33098049444944 -0.23854064296430
 7 -7.10661110901090  2.66666225602560  0.25859455495550
 6 -6.07297657665767  3.36023699949995  0.80732426602660
 6 -6.41428868196820  4.76477076647665  0.87662835003500
 6 -7.72005471247125  4.87368800030003  0.46179457075708
 6 -8.08787305890589  3.44563375867587  0.08750129642964
 6 -5.49256721342134  5.75455792169217  1.36400116061606
 6 -8.41686948454845  6.04071510521052  0.10481746714671
 6 -8.39414330563056  7.29051517011701  0.67901415121512
 7 -9.15500777337734  0.62788564966497 -0.52213624732473
 6 -9.83379963966397  1.78892884598460 -0.74169049314931
 6 -11.18533763036304  1.50216855595560 -1.29883160266027
 6 -11.29042144604460  0.08610397449745 -1.21933064706471
 6 -9.94896057675768 -0.41125309960996 -0.83918893499350
 6 -12.44289311301130  2.45146571757176 -1.36353312811281
 6 -12.45840038633863 -0.70559796989699 -1.62107291579158
 6 -12.61249873827383 -0.91245365656566 -3.03200831943194
 7 -7.23124259255926 -1.40355996959696 -0.30989566656666
 6 -8.33042328212821 -2.29361453355336 -0.57125208040804
 6 -7.86299244484449 -3.63939220672067 -0.60257753505351
 6 -6.50079396349635 -3.59151348834884 -0.09142087398740
 6 -6.25371796819682 -2.27477575887589  0.09142194639464
 6 -8.59123659105911 -4.88066090849085 -0.86219469786979
 6 -5.29223369366937 -4.38605248874887  0.25283815641564
 8 -5.07081591949195 -5.53728821222122  0.31186821752175
 6 -4.16241982138214 -3.25676146594659  0.56122598789879
 6 -3.49989061996200 -3.62463768506851  1.91085145804580
 8 -3.70891249184918 -3.08277501370137  2.99648232933293
 8 -2.68881007470747 -4.60670539293929  1.77929651055105
 6 -2.03026361426143 -5.03064729382938  2.91969690519052
 6  2.75958847054705 -0.60723851845185 -1.23262446284628
 6  4.06037812681268 -0.50510868716872 -0.63095324432443
 6  5.11944542894289  0.26037230263026 -1.08510828352835
 6  5.11625004800480  1.15039768906891 -2.23159732503250
 6  6.41158549134913  0.16987883808381 -0.20753723892389
 6  7.64029156705671 -0.33350369726973 -0.96015296579658
 6  8.96940881348135 -0.15203033343334 -0.09263107590759
 6  10.24894551905190 -0.55242231393139 -0.86442741324132
 6  10.18353505370537 -2.02939387548755 -1.24880834583458
 6  11.54197707460746 -0.33216699749975 -0.03890302170217
 6  12.86206111381138 -0.70086413751375 -0.62136215911591
 6  14.06960642904290 -0.11961316411641  0.16516358385839
 6  15.42030815571557 -0.22971670077008 -0.45404364416442
 6  15.72708437733773 -1.69270690449045 -0.87374699239924
 6  16.54205831173117  0.36201056105611  0.42278678587859
 6  17.87301189058906  0.69656105450545 -0.22813862846285
 6  18.83401377087709  1.39149736673667  0.83354378737874
 6  20.17712638183818  1.54694502800280  0.22589735293529
 6  20.27332868666867  2.35971426862686 -1.06107710041004
 6  21.25228615941594  1.93448638493849  1.33891925532553
 1 -4.08495998049805  3.52748827022702  1.34282886978698
 1 -10.00145053775378  3.93706454145415 -0.75010040154015
 1 -10.52727601700170 -2.64770411121112 -1.02760941314131
 1 -2.69986644354435 -1.07213552745275  1.91436212741274
 1 -2.14391799699970  1.66759034163416  1.39340999139914
 1 -2.14047850535054  0.60230068296830  3.54739845334533
 1 -3.06606166616662  2.22634669216922  3.44346651205120
 1 -3.70260370307031  0.58613329732973  3.75288770157016
 1 -2.17134961986199 -1.43811377177718 -0.38659256845685
 1 -1.96465813831383  0.29676692709271 -0.54213425302530
 1 -0.05731924932493  0.39372398629863  0.94720511961196
 1 -0.06838464046405 -1.28310282548255  1.22181613681368
 1 -5.66015479087909  6.72369101320132  0.92321803100310
 1 -5.52474946434643  5.83240660376038  2.31589788688869
 1 -4.42512646864686  5.36217738413841  1.26784996059606
 1 -9.24984703720372  5.92062821092109 -0.75722595079508
 1 -8.99220043594359  8.07068780768077  0.25138476027603
 1 -7.71137060286029  7.66701310081008  1.33996238173817
 1 -12.25468957405741  3.11929225522552 -2.28776178087809
 1 -13.35861553075307  1.91295518671867 -1.53444463596360
 1 -12.46537826892689  3.17840649534953 -0.60311155515552
 1 -12.59118389678968 -1.70065951105110 -1.17728268316832
 1 -13.43123184208421 -0.53612034883488 -1.37191271877188
 1 -13.77370372297230 -1.25259994619462 -3.44704458895890
 1 -12.45972953715372  0.00575603800380 -3.35896939263926
 1 -11.80757703700370 -1.67729259635964 -3.46712533253325
 1 -8.79495909890989 -5.08875961886189 -1.90122338643864
 1 -7.85647501230123 -5.77103710791079 -0.62967258025803
 1 -9.43816370127013 -4.94178920022002 -0.30681250385039
 1 -3.32353304920492 -3.38426167686769 -0.12864813631363
 1 -1.47379554605461 -4.21343778347835  3.22851576687669
 1 -2.71540114871487 -5.30031164876488  3.80549338823882
 1 -1.42559067056706 -5.91136040924092  2.55108906180618
 1  2.70482978707871 -1.66394823072307 -1.56775074007401
 1  2.43957143474347  0.00973525312531 -2.04631778397840
 1  4.11013191879188 -0.99206142134213  0.22424564056406
 1  4.26492545604560  1.26186489688969 -2.67641601130113
 1  5.50606601830183  2.25017527642764 -1.91780824902490
 1  5.86152345994599  0.69730083758376 -2.97221595259526
 1  6.47758982188219  1.24080808080808  0.04419706250625
 1  6.20100421982198 -0.58833687108711  0.60264998169817
 1  7.32405979067907 -1.37695693089309 -1.07772909650965
 1  7.85983841974197  0.05079828792879 -2.00075299889989
 1  9.18182023362336  0.98504638963896  0.02734036623662
 1  8.88617710641064 -0.56485199139914  0.79671753545355
 1  10.44863241464146 -0.09429689198920 -1.79416430593059
 1  9.25385037053705 -2.28029600610061 -1.78102402720272
 1  10.91629418511851 -2.21630841474147 -1.75136938083808
 1  10.28291117711771 -2.83259520152015 -0.48701814151415
 1  11.39098677957796  0.68350058025803  0.29874136163616
 1  11.37757081048105 -0.85716167746775  0.90873149474947
 1  13.11439475837584 -1.62266042724272 -0.89973764136414
 1  13.14936868936894 -0.03694300330033 -1.78597195849585
 1  13.88865030173017  0.86792934893489  0.38643598659866
 1  13.90150290339034 -0.49541914661466  1.16365288178818
 1  15.46512980148015  0.38596808180818 -1.18123248124812
 1  15.38504594749475 -2.25672596469647  0.13278182428243
 1  15.28342139283929 -2.23503587918792 -2.04382179727973
 1  16.83878350775078 -1.96152167706771 -1.11892336183618
 1  16.08525372607260  1.31830966466647  0.67483402770277
 1  16.58167261446144 -0.20825000010001  1.45156791799180
 1  18.51054199289929 -0.18336488388839 -0.60561390179018
 1  17.84579164366437  1.29880719961996 -1.15782935873587
 1  18.38906969956995  2.17033119081908  1.06417442274227
 1  18.91362852315232  0.78844302530253  1.78244824512451
 1  20.46388130083009  0.55298144634463 -0.07211014701470
 1  20.04153826042604  3.66026958885889 -1.08714230763076
 1  21.44292854495449  2.35892254505451 -1.27241860516052
 1  19.80222412681268  1.95360717151715 -1.94009097809781
 1  20.97183315851585  1.20592870197020  2.09792941014101
 1  22.38201990829083  1.80303153285329  0.96842180848085
 1  21.08640837073708  3.06629671297130  1.60553099359936
=======
12 -7.04490506350635  0.62681142924292  0.00346803420342
 6 -4.86768138613861 -1.91134231263126  0.54759129182918
 6 -4.87741767066707  2.80007845514551  1.20857722262226
 6 -9.46907164266427  3.04265976147615 -0.41384424412441
 6 -9.56145645934594 -1.76329184018402 -0.74989141824182
 7 -5.01933535813581  0.44467428552855  0.64325474377438
 6 -4.37183688978898 -0.67615743774377  0.82722074527453
 6 -2.89636864226423 -0.45325475117512  1.24692504670467
 6 -3.02390582898290  1.12635530383038  1.62922365306531
 6 -4.44834182908291  1.57149789858986  1.05146217611761
 6 -2.95018010011001  1.43311559965997  3.19400080898090
 6 -1.97795125612561 -0.50874613601360  0.06054001230123
 6 -0.48416583918392 -0.34323867106711  0.53148727802780
 6  0.51569270647065 -0.50935444834483 -0.51975735623562
 8  0.28819005910591 -0.85645105270527 -1.72061839353935
 8  1.80369217971797 -0.35682307870787 -0.11205799469947
 7 -7.07663811171117  2.60407599739974  0.19605830133013
 6 -6.09114839383938  3.40350132593259  0.72688622222222
 6 -6.44661191429143  4.80343463286329  0.89900058725873
 6 -7.71548425542554  4.85056568806881  0.38199659095910
 6 -8.19000327192719  3.46014520982098  0.00455300160016
 6 -5.47822577927793  5.90540300620062  1.28069282978298
 6 -8.55873367096710  5.89441047474747  0.17208419381938
 6 -8.52301619291929  7.17682380098010  0.75564181398140
 7 -9.12872514511451  0.62791565266527 -0.57218125182518
 6 -9.86393265296530  1.78151810491049 -0.57553387748775
 6 -11.21457055365537  1.41576991609161 -1.11754347384738
 6 -11.26103850775077  0.12986835093509 -1.32793150715071
 6 -9.92919860056006 -0.34171614591459 -0.91381639773977
 6 -12.36641546524652  2.50534110511051 -1.36314308910891
 6 -12.41456600290029 -0.70835824592459 -1.79934074257426
 6 -12.28277576597660 -1.28818122932293 -3.22786790539054
 7 -7.21837130543054 -1.40784039763976 -0.31313599059906
 6 -8.32810305010501 -2.30847601970197 -0.54467942314231
 6 -7.81122726832683 -3.66325459295930 -0.46733401070107
 6 -6.45132901700170 -3.52870720772077 -0.12605433733373
 6 -6.17262985938594 -2.14275255655566  0.06100890509051
 6 -8.60437790519052 -4.84057690009001 -0.73240171857186
 6 -5.22009647994799 -4.30280416391639  0.18541141374137
 8 -5.10839967786779 -5.53579806320632  0.18408543924392
 6 -4.17188076747675 -3.30472626242624  0.60687055235524
 6 -3.54502513341334 -3.76217143844384  1.95422579547955
 8 -3.67060866146615 -3.09311604780478  2.94702738383838
 8 -2.65255644934493 -4.73531825422542  1.76312489338934
 6 -2.25213580148015 -5.34086831593159  2.95025996149615
 6  2.78384089578958 -0.69470726532653 -1.22199339973997
 6  4.15056714571457 -0.46324450075007 -0.53081323032303
 6  5.07798128252825  0.36839310471047 -0.95194496719672
 6  5.18741716471647  1.13795644494449 -2.24531869716972
 6  6.37910224302430  0.49096094629463 -0.16313279847985
 6  7.58366590449045 -0.25190553745375 -0.98195514601460
 6  8.91210308290829 -0.09382451285128 -0.12339415221522
 6  10.18893951845184 -0.59159623132313 -0.91779274977498
 6  10.00061676187619 -2.12426336243624 -1.30607407240724
 6  11.43851672857286 -0.31077485828583 -0.06248537993799
 6  12.80629553725372 -0.58209226032603 -0.77551757465747
 6  13.97457692609261 -0.21611281408141  0.14559162666267
 6  15.35357148204820 -0.31693542264226 -0.53905214501450
 6  15.78362003090309 -1.73336096989699 -0.83317293499350
 6  16.42363646954696  0.29134349434943  0.39181368856886
 6  17.84539912931293  0.62190358875888 -0.15187100170017
 6  18.73747411691169  1.33038125512551  0.85902633563356
 6  20.31377004620462  1.46048638213821  0.25667043024302
 6  20.29879123292329  2.11467976517652 -1.07514850755076
 6  21.14575550635064  2.08143107940794  1.27248261166117
 1 -4.27186867136714  3.63724924632463  1.80585517241724
 1 -10.08352874557456  3.93074390939094 -0.65824121562156
 1 -10.28235152455246 -2.42389172997300 -1.10405705790579
 1 -2.41576803370337 -0.89021733563356  2.18154884608461
 1 -2.26591019621962  1.76947052965297  1.17054770517052
 1 -1.84059851735173  1.43176362926293  3.61261497499750
 1 -3.29035409540954  2.52368642614262  3.52942510791079
 1 -3.56192963566357  0.70879556355636  3.86870928372837
 1 -1.98312079697970 -1.56327628802880 -0.16500040924092
 1 -2.43237490999100  0.30045729612961 -0.62012205180518
 1 -0.47326084348435  0.83430804470447  0.86260665976598
 1 -0.34249205120512 -0.94730924612461  1.41282523772377
 1 -5.72734150955096  6.87332597669767  0.73475918511851
 1 -5.43634062346235  5.91538490159016  2.46407270437044
 1 -4.63149710571057  5.48146931333133  1.15774895049505
 1 -9.38325037753775  5.57376352445245 -0.42993322152215
 1 -9.25790700660066  8.04171491039104  0.47560718251825
 1 -7.76191565736574  7.59551595109511  1.51961034653465
 1 -12.01812591769177  3.08167849384939 -2.21376438113811
 1 -13.38369803900390  2.19359325052505 -1.34230542204220
 1 -12.26002773387339  2.94830348504850 -0.33772501650165
 1 -12.74607938633864 -1.55608505360536 -1.00887584248425
 1 -13.34002272117212 -0.25378211501150 -1.70084561206121
 1 -13.12436878947895 -1.75677036323632 -3.78424830933093
 1 -11.81395495969597 -0.54049858745875 -3.85216871257126
 1 -11.31470775007501 -1.83470833793379 -3.16692531253125
 1 -9.26517612061206 -4.95308605150515 -1.66825008910891
 1 -7.88793815861586 -5.80014001820182 -1.05699531253125
 1 -9.17058694359436 -5.09125414671467  0.18677685508551
 1 -3.31047174307431 -3.32994624532453 -0.23938921042104
 1 -1.51452961946195 -4.70296673637364  3.53173608890889
 1 -3.21846145474547 -5.59685130273027  3.56660949984999
 1 -1.71897000850085 -6.26152542574257  2.63136708960896
 1  2.61632093619362 -1.76105794169417 -1.44199816481648
 1  2.76343382098210 -0.14947066746675 -1.92804595679568
 1  4.01997290289029 -0.90756297149715  0.45182839883988
 1  4.09280824432443  1.25204391479148 -2.57834620432043
 1  5.53369878157816  2.10925118401840 -2.10802727092709
 1  5.90358766636664  0.57067817531753 -3.06841557255726
 1  6.79046110901090  1.47742174217422 -0.04253161036104
 1  6.24776889628963 -0.03973201060106  0.73781349804980
 1  7.23797118181818 -1.36518575377538 -1.21485280888089
 1  7.79609204510451  0.12396560466047 -2.07132005560556
 1  9.19341139273927  0.81118900390039  0.52564019621962
 1  8.86818530723072 -1.01252675887589  0.79180704440444
 1  10.07589514091409  0.13463600130013 -1.84264915441544
 1  9.14280926642664 -2.28397637413741 -1.94601052585259
 1  11.00435299099910 -2.28072485638564 -1.77841208510851
 1  9.90831371737174 -2.39592153415341 -0.26519595929593
 1  11.55115279617962  0.66951918211821  0.25736722422242
 1  11.43662671607161 -1.03589955125513  0.93580420202020
 1  12.59602292119212 -1.60192835403540 -1.08523619121912
 1  12.87095084758476 -0.05439474847485 -1.81315467676768
 1  13.70127156385639  0.74770732673267  0.06931427442744
 1  13.98106085918592 -0.96545615031503  0.96003251975198
 1  15.40179346784678  0.21890137513751 -1.39257361536154
 1  15.69424686758676 -2.60944123622362 -0.07822927682768
 1  15.08095114581458 -1.99196157175718 -1.48509592469247
 1  16.82759238863887 -1.59213473837384 -1.26390786028603
 1  15.77441264196420  1.00572840654065  0.99964650895090
 1  16.42998744594459 -0.34409358445845  1.14096685788579
 1  18.38279921862186 -0.28453500090009 -0.41555489588959
 1  17.58126519101910  1.28312563146315 -1.03168674447445
 1  18.21542233483348  2.26909106680668  0.85482348764876
 1  18.97573473377338  0.74845902690269  1.80546054635464
 1  20.63896880958096  0.31365751395140 -0.01075401140114
 1  19.91294540114011  3.18504206610661 -1.00040363376338
 1  21.23136738883888  2.39605625842584 -1.46356772007201
 1  19.82747665206521  1.60882269306931 -2.08138510751075
 1  21.02726870207021  1.74270237933793  2.21724134133413
 1  22.23497520382038  1.80945217491749  0.90831579787979
 1  21.04484421432143  3.14610469376938  1.46812725322532
>>>>>>> 8e03b5b5abfc0030b3aa597dc0de36371bfbd096

