%nproc=4
%Mem=2GB
# td(NStates=1) B3LYP/6-31G(d,p) nosymm

b-caroten-emi Single Point

0 1
C  12.28905501   0.67521326  -0.52734388
C -12.22047290   0.04452424   0.76492940
C  13.54278372  -0.16350916  -0.53928775
C -13.07460958   1.22929029   1.16324948
C  13.25102737  -1.57828398  -0.76822171
C -13.34947793   2.26375007   0.09226915
C  11.10058190   0.04541352   0.25941198
C -11.01023404   0.52005410  -0.06409703
C  12.42503186  -2.06093370   0.45808864
C -12.03881351   2.74056259  -0.58825856
C  11.19058420  -1.15776399   0.78992735
C -10.94604315   1.77084688  -0.56615118
C  11.82139084   1.03686092  -2.01599791
C  12.53320213   2.04894088   0.02956463
C -13.11020675  -0.95499146   0.03007424
C -11.65804035  -0.65313582   2.05338624
C   9.84472981   0.90093899   0.34570375
C  -9.91374680  -0.47694254  -0.22832476
C  10.14106958  -1.77772096   1.78912352
C  -9.73940312   2.17077917  -1.53693751
C   8.62601957   0.44223365   0.30400146
C  -8.63132600  -0.28158709  -0.24700217
C   7.41218897   1.26705090   0.39468061
C  -7.59607435  -1.31484539  -0.47023383
C   7.62525281   2.76483963   0.52239593
C  -8.00898719  -2.79556616  -0.82436843
C   6.15138527   0.67545007   0.19288943
C  -6.23705594  -0.94245829  -0.30702196
C   4.87611170   1.26363939   0.29774465
C  -5.13808854  -1.75327049  -0.26091357
C   3.79356477   0.52504050   0.16426643
C  -3.86086970  -1.27012399  -0.21040474
C   2.45708828   1.03655521   0.41914568
C  -2.64641777  -1.93289422  -0.28241737
C   2.21205175   2.44734271   0.58894934
C  -2.75528415  -3.46779191  -0.49910485
C   1.21217040   0.33795181   0.20055653
C  -1.39548960  -1.24198034  -0.25926930
C   1.07961090  -1.06016535  -0.21220414
C  -0.08657286  -1.81419945  -0.27585394
H  14.02336309  -0.17730594   0.33662982
H  14.31564026   0.30328158  -1.16895399
H -12.56199863   1.58822226   2.08504419
H -14.11506304   1.06828612   1.55481800
H  14.13840785  -2.07563448  -0.95243519
H  12.65859512  -1.77789605  -1.74365303
H -13.86685284   3.22717187   0.47182388
H -13.98595508   1.68433447  -0.69026493
H  13.07284340  -2.27587489   1.34259118
H  11.94057107  -3.03405191   0.21690530
H -11.57918051   3.45333306  -0.00068466
H -12.07453239   3.36362784  -1.56050423
H  11.72160495   0.09411201  -2.40588352
H  12.49863871   1.40754520  -2.54457491
H  10.74573815   1.42424573  -2.04742048
H  12.72661365   2.09670669   1.23376434
H  11.86247007   2.76540755  -0.24515443
H  13.58935157   2.13297419  -0.21127141
H -13.49679763  -0.45567214  -0.84835170
H -13.93739476  -1.13790372   0.63517393
H -12.53152708  -1.83662667  -0.00658089
H -11.27512809   0.01575228   2.80604661
H -11.03746841  -1.41658258   1.85290688
H -12.45809437  -1.19743645   2.73023860
H  10.01203168   1.96737251   0.44001921
H -10.20831805  -1.46264062  -0.41279975
H   9.57526982  -0.92456513   2.24311556
H  10.61924617  -2.16055008   2.52847450
H   9.53944605  -2.58148532   1.23306900
H  -9.20968229   1.36416319  -2.32727165
H  -8.91583807   2.80393001  -0.95105346
H -10.36000686   2.82739432  -2.23127928
H   8.60482221  -0.57668286   0.11077559
H  -8.28120145   0.79032623  -0.42216387
H   8.06928138   2.97035170   1.46835715
H   6.66168885   3.29122386   0.43797268
H   8.38848076   3.37713813  -0.17939298
H  -8.81973663  -2.53846042  -1.59562368
H  -8.66909877  -3.18246439  -0.04747977
H  -7.07801372  -3.29431810  -1.39309640
H   6.02570616  -0.51338770   0.14262591
H  -5.89495489   0.18466535  -0.35501061
H   4.80316507   2.22754564   0.19875846
H  -5.40347991  -2.85700162  -0.41187660
H   3.93149679  -0.50534555  -0.16299221
H  -3.79145244  -0.16680550  -0.29515728
H   3.03922734   2.95660662   1.32896856
H   0.94984257   2.79145932   1.06425082
H   2.21575626   2.95250026  -0.49329106
H  -3.45154827  -3.52023471  -1.38349317
H  -3.14691429  -4.03775977   0.32923162
H  -1.78310013  -3.83726631  -0.85273472
H   0.31413072   0.79478904   0.26128256
H  -1.45114613  -0.16060660  -0.39578208
H   1.94553113  -1.67679062  -0.43058647
H  -0.16843631  -2.95016621  -0.31195541




