%nproc=4
%Mem=2GB
# td(NStates=1) B3LYP/6-31G(d,p) nosymm

b-caroten-emi Single Point

0 1
C  12.36297916   0.64811769  -0.47605923
C -12.17878744  -0.05012786   0.87813186
C  13.60610850  -0.31710184  -0.24884874
C -12.93405911   1.09690293   1.51984922
C  13.17136931  -1.74347716  -0.39088105
C -13.41731866   2.04795295   0.33006175
C  11.08947441   0.02284534   0.30550998
C -11.03249272   0.45996630  -0.01196976
C  12.29102371  -2.20318834   0.81009006
C -12.07773703   2.71095775  -0.19195217
C  11.12335731  -1.25858339   0.94698821
C -11.00946568   1.69731026  -0.56469770
C  11.96517623   0.75579825  -1.98934809
C  12.66474278   2.01424034  -0.02134551
C -13.07131926  -1.05511011  -0.04479754
C -11.55749779  -0.91017165   2.17604334
C   9.82685728   0.88828183   0.38832333
C  -9.95411132  -0.53755206  -0.23411502
C  10.05840342  -1.73983547   1.96757746
C -10.00851307   2.20181375  -1.53991946
C   8.55927757   0.49030647   0.27844626
C  -8.59158304  -0.20758394  -0.25085774
C   7.42836841   1.27660831   0.39703887
C  -7.53644639  -1.24132169  -0.47280335
C   7.58346077   2.73277523   0.53083777
C  -8.04679066  -2.61554080  -0.71139145
C   6.19253414   0.72801606   0.22365798
C  -6.20469506  -0.87672650  -0.29204466
C   4.86340679   1.33219515   0.14176310
C  -5.09309008  -1.60187963  -0.43561450
C   3.73567536   0.54734485   0.00375140
C  -3.84909792  -1.13852817  -0.36345768
C   2.40696221   1.11112949   0.00718796
C  -2.58986145  -1.80952513  -0.52958706
C   2.14061429   2.67180963   0.10077375
C  -2.60749184  -3.25783352  -0.80188231
C   1.19240126   0.47890979  -0.23255741
C  -1.39767522  -1.16210853  -0.42404420
C   1.05690497  -0.98413792  -0.25570203
C  -0.11093072  -1.67184394  -0.55505179
H  14.10853130  -0.15624129   0.75427451
H  14.42194878  -0.01045315  -0.92932059
H -12.19788450   1.81337271   2.07926226
H -13.83318987   0.82064806   2.03002761
H  14.20656704  -2.25685254  -0.53628180
H  12.64897981  -1.97273306  -1.24453310
H -13.96629540   2.88316290   0.77101708
H -14.17499400   1.26852322  -0.38330764
H  12.75861675  -2.19238115   1.78758520
H  11.92827919  -3.16178830   0.65184214
H -11.46021221   3.62491155   0.39434806
H -12.18950879   3.40535017  -1.13437844
H  11.81627185  -0.27253691  -2.53862095
H  12.88821881   1.30060612  -2.49959305
H  11.09557752   1.30157909  -2.13334855
H  12.98018590   2.09929232   1.06373134
H  12.13885922   2.72223103  -0.37785224
H  13.61033075   2.34118545  -0.52294177
H -13.45010600  -0.46030484  -0.87000874
H -13.70802157  -1.57523158   0.54297930
H -12.44846906  -1.81876315  -0.07624486
H -10.83357998  -0.42938281   2.59615594
H -11.19148745  -1.99650357   1.88192183
H -12.46693158  -1.21490170   2.85469092
H  10.10888857   2.03837831   0.15404881
H -10.33035722  -1.55789704  -0.19253367
H   9.53769903  -0.83259869   2.43846808
H  10.75027690  -2.36740897   2.78623586
H   9.44183889  -2.58426770   1.52220827
H  -9.34359079   1.54310042  -1.93684699
H  -9.27892412   3.08919598  -1.12459607
H -10.60696926   2.71449058  -2.26584098
H   8.36539593  -0.58295517   0.08576228
H  -8.46456242   0.73354780  -0.13194029
H   8.65335819   3.21973738   0.94343537
H   6.76283207   3.39779497   1.16958871
H   7.66657663   3.36693926  -0.54432431
H  -9.15343917  -2.67253572  -1.31958326
H  -8.37982797  -2.77471661   0.40184377
H  -7.31403417  -3.22464908  -1.14756623
H   6.13166501  -0.45630609  -0.00838194
H  -6.11072859   0.13760040  -0.13549051
H   4.86684949   2.29378464   0.02796879
H  -5.18928546  -2.64426161  -0.53088761
H   3.73972923  -0.55354663   0.15257700
H  -3.79707688  -0.11287068  -0.12615293
H   2.90830923   3.06458427   0.83990771
H   1.06617065   2.86936879   0.42349362
H   2.32811634   3.18847977  -0.76486541
H  -2.81766541  -3.54256497  -2.03375657
H  -3.52146338  -3.73022131  -0.38517796
H  -1.46942923  -3.66898527  -0.57885629
H   0.16706115   0.97303274  -0.34012195
H  -1.52015688  -0.13530577  -0.13131221
H   2.03750109  -1.69969698  -0.35363717
H  -0.02667222  -2.84142817  -0.96697495




