%nproc=4
%Mem=2GB
# td(NStates=1) B3LYP/6-31G(d,p) nosymm

b-caroten-emi Single Point

0 1
C  12.16492893   0.62870296  -0.60705266
C -12.10378277  -0.12095878   0.67927553
C  13.50438524  -0.21252457  -0.47639935
C -12.98131437   1.13151223   1.17570954
C  13.27801699  -1.77166873  -0.61205672
C -13.20453312   2.21821963   0.19899279
C  10.95819507   0.02830557   0.13251304
C -10.93397680   0.49194628  -0.10144247
C  12.17696522  -2.13698049   0.41999372
C -11.87578068   2.79938363  -0.38912043
C  11.07736218  -1.26124720   0.70544845
C -10.87569211   1.72774368  -0.64128815
C  11.75588061   0.81566790  -2.10286202
C  12.38745435   2.10923605  -0.12909065
C -13.00126139  -0.80705452  -0.24271115
C -11.67937624  -0.93953612   1.86091217
C   9.74448391   0.87045641   0.40698717
C  -9.87027542  -0.50581148  -0.35363080
C  10.05175584  -1.86640724   1.66207673
C  -9.73234893   2.24725493  -1.42990138
C   8.43580174   0.47786928   0.33451574
C  -8.51036514  -0.28168479  -0.25685600
C   7.35765869   1.40114316   0.44398196
C  -7.53163739  -1.33503094  -0.44767998
C   7.50034561   2.83681174   0.73344262
C  -7.97553018  -2.73858655  -0.72327595
C   6.21141535   0.74715379   0.31996286
C  -6.24145658  -1.06958114  -0.17419684
C   4.96443780   1.32978360   0.31233741
C  -5.03210731  -1.76697897  -0.40976181
C   3.64431804   0.62759834   0.16548388
C  -3.71905320  -1.19036307  -0.16826648
C   2.42288132   1.22618580   0.18159068
C  -2.52689476  -1.85581808  -0.32099921
C   2.25583507   2.69321267   0.25028166
C  -2.58152763  -3.44593406  -0.40824086
C   1.23261619   0.41877513   0.08289536
C  -1.40321738  -1.20193875  -0.12029418
C   1.05627462  -1.04302358  -0.00029546
C  -0.04073390  -1.69526286  -0.09876830
H  13.98772581   0.24685041   0.37776773
H  14.25099195   0.12913600  -1.30229891
H -12.63524909   1.57506700   2.09284333
H -13.98656437   0.75332523   1.41843094
H  14.21322224  -2.34618278  -0.40097099
H  12.98396983  -1.67651603  -1.66555676
H -13.80670307   3.09811827   0.51870836
H -13.77803564   1.71613631  -0.55039205
H  12.76640492  -2.33551361   1.30804864
H  11.80229559  -3.22011599   0.27604905
H -11.37210272   3.38142276   0.45126944
H -12.05904978   3.56641145  -1.23071158
H  11.51673199  -0.29802998  -2.37727730
H  12.41450795   1.32691490  -2.60302839
H  10.75581109   1.14767417  -2.26426307
H  12.30265195   2.27106018   0.95915151
H  11.51757264   2.61600661  -0.46076530
H  13.24446430   2.31962864  -0.62368578
H -13.30948674  -0.11158237  -1.19398185
H -14.14836062  -1.12239931   0.01434999
H -12.42858803  -1.78875321  -0.37921307
H -11.01101236  -0.36824883   2.56349543
H -11.42410819  -1.99331863   1.63744941
H -12.53576012  -1.11342578   2.64357194
H   9.94628358   1.92766282   0.37284520
H -10.21586661  -1.61756803  -0.40975152
H   9.36311479  -1.19760660   2.32457290
H  10.50979274  -2.45591000   2.43859597
H   9.34523881  -2.72606451   1.09610844
H  -8.91840426   1.51302469  -1.83682350
H  -9.11905667   3.00024853  -0.85889241
H -10.26624216   2.97915442  -2.19105360
H   8.23985631  -0.45922108   0.41799177
H  -8.37055699   0.83177926   0.00417803
H   8.42694940   2.99314607   1.57059385
H   6.49830549   3.17097501   1.23077810
H   7.89272172   3.41844696  -0.12527311
H  -8.77283587  -2.83119939  -1.62896784
H  -8.47117332  -3.06724914   0.24792062
H  -7.01805842  -3.32706018  -0.82041078
H   6.20311245  -0.40804626   0.15017522
H  -5.93799409  -0.05362591   0.24957262
H   4.70233220   2.32701312   0.76736993
H  -5.08542815  -2.80589609  -0.50405954
H   3.39238342  -0.40676734  -0.09700682
H  -3.69536153  -0.20885165   0.20593433
H   2.56254367   3.19335398   1.18476634
H   1.18310260   3.00861147   0.19536521
H   2.81862833   3.11384949  -0.62486980
H  -3.10480473  -3.78058714  -1.29396634
H  -3.31184342  -3.79746414   0.46901658
H  -1.68157891  -4.19430076  -0.59059991
H   0.14566991   0.99698469   0.00084875
H  -1.39321049  -0.15793965   0.14307682
H   2.00387014  -1.61494473   0.10699786
H   0.03377857  -2.88220588   0.01399548




