%nproc=4
%Mem=2GB
# td(NStates=1) B3LYP/6-31G(d,p) nosymm

b-caroten-emi Single Point

0 1
C  12.24905927   0.45638025  -0.38921312
C -12.11092343  -0.05076457   1.05708958
C  13.52484202  -0.29516081   0.01807076
C -13.00155254   1.07299472   1.56117939
C  13.19568363  -1.79960638  -0.28451849
C -13.39389764   2.06077198   0.38474967
C  10.95201905  -0.07441359   0.40116967
C -10.90341613   0.43647609   0.10170559
C  12.17298417  -2.38945867   0.80710957
C -12.15805698   2.66482124  -0.30308700
C  10.97829973  -1.30989247   0.93243587
C -11.02547165   1.64638987  -0.49318533
C  12.01302501   0.73259168  -1.81659980
C  12.48689669   2.00677348   0.13247927
C -12.95950020  -1.02228910   0.19677943
C -11.46380887  -0.73645249   2.19747709
C   9.85171098   0.81923775   0.37370041
C  -9.83981148  -0.55456322  -0.15900549
C   9.95430781  -1.91750121   1.84169501
C  -9.84100822   2.15887602  -1.45832413
C   8.49226468   0.57342884   0.33872938
C  -8.51240591  -0.28785215  -0.19204267
C   7.37242289   1.37637043   0.28324151
C  -7.50357978  -1.33110744  -0.40052302
C   7.55777022   2.81798921   0.27692126
C  -8.01288813  -2.74894293  -0.75714682
C   6.13780770   0.75180470   0.06470145
C  -6.21901814  -0.91493374  -0.33049906
C   4.89749106   1.46229611   0.02653519
C  -5.04228569  -1.73869484  -0.58074855
C   3.66319567   0.81533561  -0.03337236
C  -3.79298830  -1.25825550  -0.49397257
C   2.44479987   1.38142511  -0.13586631
C  -2.45880636  -1.92123494  -0.65870007
C   2.31394808   3.00275255  -0.03918120
C  -2.46274372  -3.38205074  -0.98446267
C   1.18138397   0.61665994  -0.18018413
C  -1.47223782  -1.14257200  -0.43737808
C   0.99405323  -0.73886331  -0.39510775
C  -0.13995276  -1.55070173  -0.56531401
H  13.62614505  -0.36854311   1.19932587
H  14.50297867   0.05395255  -0.64762774
H -12.53381175   1.64751493   2.46548872
H -13.99476831   0.74257966   1.98220144
H  14.09060035  -2.41885960  -0.20433329
H  12.79051677  -2.10031631  -1.12270918
H -14.01045572   2.93809100   0.67316476
H -14.11518756   1.35067532  -0.19677876
H  12.48738237  -2.39527504   1.79769924
H  11.87089140  -3.39259693   0.58179744
H -11.67529322   3.20765791   0.69039176
H -12.38830151   3.25335892  -1.14752455
H  11.98494385  -0.32689964  -2.46832916
H  12.93480890   1.36860602  -2.31332533
H  10.97847341   1.19505397  -2.08666053
H  12.53685002   2.05635053   1.36288908
H  11.84536601   2.63538694  -0.30787472
H  13.32618651   2.21537480  -0.05133867
H -13.50395179  -0.75995186  -0.89720426
H -13.79291441  -1.44592797   1.03084030
H -12.35331697  -1.84631234  -0.23717531
H -10.82819851  -0.05953688   2.76456564
H -11.02423025  -1.71288337   1.89075650
H -12.34085130  -1.16137951   3.09624813
H  10.07010861   1.92739104   0.23580350
H -10.18437046  -1.71365673  -0.28254631
H   9.34968152  -1.22950265   2.45989888
H  10.37437339  -2.27616932   2.76380229
H   9.45873182  -2.70876623   1.02719046
H  -9.10107883   1.41050915  -1.95862772
H  -9.20646960   2.94329489  -1.18660938
H -10.29058034   2.73445186  -2.34796877
H   8.28654572  -0.55944823   0.30177915
H  -7.84512345   0.56228791   0.16320323
H   7.95991585   2.95188216   1.20058593
H   6.71722626   3.48975201   0.22005098
H   8.30036365   3.16497706  -0.15699807
H  -8.59272935  -2.65461161  -1.61591639
H  -8.56099755  -3.30419982   0.07369319
H  -7.26870088  -3.56585680  -0.96354211
H   6.31983651  -0.25718607  -0.14861523
H  -5.77590917   0.18029466  -0.03149007
H   4.96853863   2.64030911   0.24905664
H  -5.14104814  -2.61398760  -1.03233366
H   3.66361608  -0.12355834  -0.36061318
H  -3.67145328  -0.24533168  -0.36166023
H   2.50796204   3.37388980   1.08390420
H   1.24303846   3.12431780  -0.15056746
H   2.86143329   3.48017908  -0.85147772
H  -3.18163409  -3.58599397  -1.95652310
H  -2.79989252  -3.79353427  -0.04496317
H  -1.36309341  -3.67290326  -1.42833710
H   0.31043436   1.26886689  -0.21099716
H  -1.53420016  -0.02491301  -0.07541732
H   1.87046299  -1.15236383  -0.63057852
H  -0.03247228  -2.42636465  -1.02227498




