%nproc=3
%Mem=2GB
# td=(NStates=1) B3LYP/SVP 

TD

0 1
 6 -5.16726442454245 -1.95009125122512  0.48223309920992
 6 -4.70703102210221  2.75168161986199  1.34973135903590
 6 -9.30431034073407  3.31262206140614 -0.34851331923192
 6 -9.77216527102710 -1.41738254165417 -0.86858941234123
 7 -5.22063122542254  0.45965758865887  0.88797723472347
 6 -4.57380599669967 -0.72551927292729  0.79248269166917
 6 -3.13400308680868 -0.54883131783178  1.28182317811781
 6 -3.10283524892489  0.89176806910691  1.77802690849085
 6 -4.42976216931693  1.52310212811281  1.33150674767477
 6 -2.80821939043904  1.00152766506651  3.21363922652265
 6 -2.07985005570557 -0.85853581528153  0.12889083468347
 6 -0.70855406760676 -0.87658587518752  0.58265071777178
 6  0.36319998139814 -1.07169404230423 -0.59345090269027
 8  0.07008877647765 -1.42278464506451 -1.68457206870687
 8  1.59277947504750 -0.84788156125613 -0.08568101080108
 7 -7.08298289288929  2.76354362616262  0.51292080128013
 6 -5.92639421482148  3.36865128342834  0.86436729362936
 6 -6.26144933063306  4.78503494299430  1.00149664246425
 6 -7.53953305010501  5.00487932343234  0.59469599699970
 6 -8.10647159305931  3.61984047774777  0.14273442884288
 6 -5.31203171967197  5.81112662776278  1.52215348134813
 6 -8.28122540524052  6.25960997259726  0.39536803810381
 6 -8.99624752295230  6.60207992989299 -0.73140561936194
 7 -9.23932213281328  0.93035026802680 -0.48165063346335
 6 -9.86816067896790  2.02621512021202 -0.63325259445945
 6 -11.30090395689569  1.87752131313131 -1.05704953885389
 6 -11.38009195969597  0.43447078717872 -1.16205115981598
 6 -10.08660088578858 -0.08473842554255 -0.87749099159916
 6 -12.25118361926193  2.94936343794379 -1.01992508280828
 6 -12.66330406990699 -0.23699617911791 -1.47729868956896
 6 -12.79699983068307 -0.43420668506851 -3.02883105440544
 7 -7.51580053765376 -1.30690237543754 -0.16768529702970
 6 -8.56812840034003 -2.02744147094709 -0.61217457985799
 6 -8.19854229322932 -3.51693857605761 -0.59506207350735
 6 -6.86395130423042 -3.44259108740874 -0.26116374027403
 6 -6.46694779817982 -2.10359317791779  0.07823289948995
 6 -8.94995775337534 -4.62473322282228 -0.92317131153115
 6 -5.70884782998300 -4.30514554965496  0.03337428302830
 8 -5.58229771997200 -5.56237576767677 -0.02671993789379
 6 -4.56115374397440 -3.32951371297130  0.46569563166317
 6 -3.91180497839784 -3.80065415891589  1.86771329702970
 8 -4.30613568706871 -3.35272320622062  2.86638470657066
 8 -2.96479516711671 -4.66506147904791  1.60992142004200
 6 -2.32591729552955 -5.29466891299130  2.69702184178418
 6  2.65341751035103 -1.09318321592159 -1.16692071787179
 6  3.96423967076708 -0.81704220662066 -0.56063816391639
 6  4.94774703130313  0.03965502040204 -1.08328228482848
 6  4.87006620232023  0.84378511021102 -2.34455157195720
 6  6.27507925312531  0.19926766596660 -0.37812672687269
 6  7.55488672907291 -0.30329651255126 -1.05159202610261
 6  8.74147574867487 -0.18537252235224 -0.26166451395140
 6  10.07163808950895 -0.62314664126413 -0.96817417221722
 6  9.99909594819482 -2.13237704060406 -1.39499878477848
 6  11.31648549874988 -0.20598491319132 -0.18065862156216
 6  12.72057373157316 -0.44054937213721 -0.90084460756076
 6  13.91486007540754 -0.02985021122112  0.13023507900790
 6  15.15664457625762 -0.16571745324532 -0.39781333923392
 6  15.69772934473447 -1.56590545594559 -0.54626339463946
 6  16.30603134743474  0.46721123842384  0.51757077937794
 6  17.67552244104411  0.63528644634463 -0.03808771017102
 6  18.65245616991699  1.49294362326233  0.78673949014902
 6  20.09126102770277  1.58947675227523  0.39693142064206
 6  20.27049774867487  2.19212578867887 -1.15311338913891
 6  20.96998952025203  2.34960629942994  1.32107389558956
 1 -3.93221088138814  3.42810404240424  1.64035891679168
 1 -9.87201505460546  4.15244248634863 -0.46857818051805
 1 -10.57900215661566 -2.27186434193419 -1.29966944004400
 1 -2.99002132913291 -1.30945018021802  1.92632350805080
 1 -2.36676799129913  1.23893411661166  1.26539945214522
 1 -1.97843810181018  0.53851021942194  3.63581268526853
 1 -2.95834132603260  2.07901295099510  3.63665386058606
 1 -3.68863846074607  0.55836102060206  3.73073825002500
 1 -2.12861837023702 -1.87546227932793 -0.16531097829783
 1 -1.88666200560056 -0.25401921092109 -0.82722941714171
 1 -0.25276109590959  0.12397625122512  0.87869823112311
 1 -0.53628396769677 -1.75265722432243  1.25966347474747
 1 -4.39693450995100  5.66467083518352  0.86843964376438
 1 -5.67687289368937  6.79924483918392  1.38048734333433
 1 -5.12103018981898  5.72427047104711  2.49477361136114
 1 -8.10315532493249  6.95894576907691  1.32427398129813
 1 -9.29624497639764  5.83931409190919 -1.47310889698970
 1 -9.46677142374237  7.58502723022302 -0.57042726562656
 1 -12.13567792979298  3.75175436263626 -0.18992680578058
 1 -12.05483933223322  3.58156211361136 -2.06149546634663
 1 -13.41532255505551  2.47830566626663 -0.90215457085709
 1 -12.65148752195219 -1.25651457815782 -1.03371812291229
 1 -13.65031205570557  0.33513766846685 -1.24236659545955
 1 -12.71734736463646  0.62982979607961 -3.33475081938194
 1 -11.91109607760776 -0.67762533613361 -3.41910086218622
 1 -13.47447420092009 -1.10828992379238 -3.42394993729373
 1 -10.07055360416042 -4.84331365116512 -0.49278158015802
 1 -9.15541952085209 -4.76567451345134 -2.06277317551755
 1 -8.35482065676568 -5.51101936893689 -0.74592254775478
 1 -3.72062391379138 -3.49259554975498 -0.42665401400140
 1 -1.46831722472247 -5.94656975267527  2.34615794989499
 1 -2.01354980138014 -4.49007249114911  3.41791623422342
 1 -3.03391640804080 -6.08864395599560  3.35321219681968
 1  2.64083799129913 -2.07584522802280 -1.53970513751375
 1  2.31865676017602 -0.41027860866087 -2.13538130533053
 1  4.00419319101910 -1.42827514181418  0.19468737173717
 1  5.26843867306731  1.77491000000000 -2.09975469526953
 1  5.51902852005201  0.47974393689369 -3.18563996559656
 1  3.79810992919292  0.79588077487749 -2.74082490759076
 1  6.43155117131713  1.34324044904490 -0.11798198929893
 1  6.25340338503850 -0.31477136673667  0.62696040344034
 1  7.29530631553155 -1.18532525712571 -1.37361812141214
 1  7.55283482598260  0.13599562016202 -1.98927375637564
 1  8.98577406480648  0.86820566186619  0.00990113841384
 1  8.91266432923292 -0.74870902240224  0.86961977437744
 1  10.21890455905591 -0.05690313361336 -1.98294286928693
 1  9.21072138833883 -2.16931562476248 -2.02257080488049
 1  11.00079511061106 -2.58949054885489 -1.78147875277528
 1  9.78568358845885 -2.83719540514051 -0.51469973927393
 1  11.39688498589859  0.86336511661166 -0.19118053285329
 1  11.15560152365237 -0.54044928142814  0.84541447164716
 1  12.57916262686269 -1.64090566176618 -1.06667988098810
 1  12.66489464166417 -0.05696577557756 -2.00226175987599
 1  13.73999515441544  1.12271198199820  0.52821573247325
 1  13.76167039403940 -0.74905133293329  1.14129097499750
 1  15.14302664686469  0.30834204030403 -1.38264027732773
 1  15.10281583448345 -2.25361794359436 -1.18865819901990
 1  16.86961083458346 -1.56783081968197 -0.80430621452145
 1  15.48208348714871 -2.33600873347335  0.43321259265927
 1  15.91938221142114  1.55197176747675  0.74768522752275
 1  16.33178783558356 -0.17141651835184  1.46574999759976
 1  18.28298952065206 -0.28550276077608 -0.00093996179618
 1  17.47348193379338  1.12581446974697 -1.09970840334033
 1  18.37858254775477  2.56911330723072  0.77199258895890
 1  18.60331258545855  1.14958076757676  1.97767491749175
 1  20.22101843424343  0.58655661666167  0.31844300050005
 1  19.90944830143015  3.22585085518552 -1.12658456085609
 1  21.48557580128013  2.20104817451745 -1.25761886848685
 1  19.95696066906691  1.43651927362736 -1.85518770027003
 1  20.76686192269227  1.84837630563056  2.16807784438444
 1  22.05131798899890  2.63522354975498  1.05425958305831
 1  20.79073870327033  3.54286748634863  1.37635637353735
 1 -7.26204803790379  1.85634450765077  0.53000484658466
 1 -7.63615516391639 -0.19463963996400 -0.03577370497050

