%nproc=3
%Mem=2GB
# td=(NStates=1) B3LYP/SVP 

TD

0 1
 6 -4.99732743084309 -1.87752399449945  0.48122299819982
 6 -4.79512983198320  2.89356580828083  1.19561594749475
 6 -9.49688959865987  3.28978977817782 -0.21374984288429
 6 -9.83968202270227 -1.63657446084608 -0.71278383178318
 7 -5.16710587288729  0.50177180008001  0.75203364036404
 6 -4.39067768386839 -0.57793451445145  0.81185462886289
 6 -3.03521320782078 -0.44335076977698  1.23705870167017
 6 -2.95763072847285  1.03668256055606  1.73206231203120
 6 -4.30062925602560  1.46439625752575  1.25538913591359
 6 -2.84052262076208  1.22934044634463  3.29956781938194
 6 -2.02959503020302 -0.61306126782678  0.09660760636064
 6 -0.56265947814781 -0.45322353895390  0.38813126582658
 6  0.34267792919292 -0.91830870377038 -0.61763332093209
 8  0.17490925852585 -1.59934230083008 -1.66962057355736
 8  1.61813201030103 -0.41831860496050 -0.40407284998500
 7 -7.08765335993599  2.73657092889289  0.41956146534653
 6 -6.02495407080708  3.39469388768877  0.83371422832283
 6 -6.32775596129613  4.80952739223922  0.84527101990199
 6 -7.76174527132713  4.97057589308931  0.42448897629763
 6 -8.24068501440144  3.65497399109911  0.16004616001600
 6 -5.46424694119412  5.88733424852485  1.38667993399340
 6 -8.40329761246124  6.21071508310831  0.36820532183218
 6 -9.51053895209521  6.57037675957596 -0.43419589838984
 7 -9.29472767336734  0.82441967496750 -0.39341180958096
 6 -10.01295515841584  2.00006250495050 -0.52594186338634
 6 -11.45186905340534  1.73593715471547 -0.70112394629463
 6 -11.52472642314231  0.41551889198920 -0.90185514021402
 6 -10.10317254295430 -0.19619957165717 -0.68426166866687
 6 -12.44657315821582  2.77525602720272 -1.03744683498350
 6 -12.71740948044804 -0.52209468896890 -1.33550451015102
 6 -12.86846697739774 -0.86850011441144 -2.79703787508751
 7 -7.37935689328933 -1.25850753595360 -0.07855638413841
 6 -8.53125471297130 -2.13626235303530 -0.43348671107111
 6 -8.01875431443144 -3.44621150335033 -0.47621018831883
 6 -6.67729263836384 -3.32698952725273 -0.17803542744274
 6 -6.31611271467147 -2.02469528812881  0.01347642384238
 6 -8.89011176877688 -4.72075282478248 -0.75724471887189
 6 -5.51960890609061 -4.22949798489849  0.05334628022802
 8 -5.49799929012901 -5.48047757785779 -0.02940020592059
 6 -4.31492912151215 -3.30659142074207  0.37931699379938
 6 -3.58896269416942 -3.77310140364036  1.60299682538254
 8 -3.89092416591659 -3.48660659455946  2.74618268636864
 8 -2.66404509210921 -4.75202017491749  1.19276970487049
 6 -1.77109181298130 -5.36717616371637  2.30855299489949
 6  2.70710287888789 -0.79777367496750 -1.35356938273827
 6  3.94004725152515 -0.58477898029803 -0.81741384148415
 6  4.82304456105611  0.25630668556856 -1.39448340494049
 6  4.74878407410741  1.09219995169517 -2.70792790959096
 6  6.17114886008601  0.58047578677868 -0.68867778197820
 6  7.46639788018802 -0.21554773767377 -1.18201506840684
 6  8.72856445754575  0.11952796769677 -0.40835918341834
 6  9.98430935663566 -0.63229755635564 -0.82914026882688
 6  9.84978101670167 -2.12531633453345 -0.99331861676168
 6  11.25950980118012 -0.31985630033003  0.09868931323132
 6  12.54130580478048 -0.50261557875788 -0.67178170127013
 6  13.71127971737174 -0.05803302950295  0.33098515401540
 6  15.17947685948595 -0.38070895239524 -0.25372893079308
 6  15.52126169796980 -1.81305017041704 -0.36659542784278
 6  16.25981672597260  0.36848136543654  0.60720974327433
 6  17.61594648344835  0.40871378907891  0.17558365696570
 6  18.61247217151715  1.28587291619162  0.86271708790879
 6  20.09732163376338  1.28284608920892  0.43731545904590
 6  20.33240393929393  1.67766434253425 -1.03085116291629
 6  20.91391391269127  2.08383972277228  1.39516130433043
 1 -3.97156481678168  3.63457468946895  1.42516739763976
 1 -10.13241109420942  4.16454369646965 -0.10482180488049
 1 -10.61229548594859 -2.44961211671167 -1.10043951705170
 1 -2.92788511551155 -1.25917515271527  1.95546642234223
 1 -2.04338565306531  1.62874309750975  1.43255616781678
 1 -1.95842610061006  0.82858922732273  3.68753785778578
 1 -2.85797128902890  2.33727877757776  3.71474166936694
 1 -3.71813141004100  0.79949513401340  3.55027020322032
 1 -2.34764027242724 -1.61662639573957 -0.30033448064806
 1 -2.37178051745175  0.10584677567757 -0.65308200240024
 1 -0.22427824762476  0.65113896749675  0.34433479477948
 1 -0.26655699499950 -0.93173513211321  1.32224973337334
 1 -4.58526334283428  5.96925129322932  0.53510631043104
 1 -5.84570977737774  6.99550446514651  1.49347864246425
 1 -4.87020510731073  5.61108915291529  2.24794892889289
 1 -8.24610962036204  7.08800867536754  1.00611216511651
 1 -9.84155950785079  6.00207036753675 -1.45916750285029
 1 -10.28896364296430  7.45544427192719 -0.20413063596360
 1 -12.60136449844985  3.27925711291129 -0.09536734983498
 1 -12.24455830413041  3.67921187858786 -1.61878119491949
 1 -13.23274429722972  2.40174801050105 -1.40889524492449
 1 -12.72524489768977 -1.57326625332533 -0.75733048414842
 1 -13.60616764126413  0.10217437213721 -1.03130548934893
 1 -13.10833646354635 -0.01545473237324 -3.40270761506151
 1 -12.07159212721272 -1.42973054665467 -3.15811476357636
 1 -13.83964071757176 -1.26687578237824 -3.24119166146615
 1 -9.66363291209121 -4.74206352615261 -0.06101840384038
 1 -9.28609258815881 -4.80605855185519 -1.70148704690469
 1 -8.36525169986999 -5.71827009400940 -0.44024197969797
 1 -3.63888573997400 -3.35972226242624 -0.48419976857686
 1 -1.46084647764777 -6.22920801650165  1.76319965406541
 1 -0.97185563196320 -4.67826131003100  2.50760520312031
 1 -2.49436245264526 -5.53808890049005  3.17914479007901
 1  2.70979488698870 -1.88794643814381 -1.37021818881888
 1  2.49193408790879 -0.30379796059606 -2.47900566776678
 1  4.11916468816882 -0.98133044734473  0.13416131913191
 1  4.59709153835384  2.29380188918892 -2.39552427222722
 1  5.78524514171417  0.90954691719172 -3.24972637423742
 1  3.85294541274127  0.53128431523152 -3.23105393049305
 1  6.62293030923092  1.68450457545755 -0.77508769986999
 1  6.16512455715572  0.30195030543054  0.29741744914492
 1  7.14560134503450 -1.32791951655166 -1.02550330993099
 1  7.52097163966397 -0.20336831623162 -2.24832966196620
 1  8.95236072347235  1.17960680198020 -0.29105895759576
 1  8.45464852765276 -0.30115426692669  0.70498331073107
 1  10.58730139873987 -0.14751219451945 -1.78603317831783
 1  9.12518283448345 -2.56247494069407 -1.56942549034903
 1  10.77422245334533 -2.53000460026003 -1.34970557545755
 1  9.53721874197420 -2.29347103270327  0.10273200390039
 1  11.12008730613061  0.65560434053405  0.36088467366737
 1  10.90272623612361 -0.73229846634663  1.02413234343434
 1  12.76749145974597 -1.51175274647465 -0.86708992199220
 1  12.51639979217922  0.35453537453745 -1.65362689638964
 1  13.56487764266427  1.02070178097810  0.36039895079508
 1  13.67181140814081 -0.56983341114111  1.34475132103210
 1  14.98049039323932  0.07090829692969 -1.36885889918992
 1  14.73850940384038 -2.42223480528053 -1.03909324252425
 1  16.54507838133813 -1.90296433303330 -1.13598938283828
 1  15.48097337613761 -2.46841197379738  0.63498276967697
 1  16.04454472767277  1.46538310861086  0.65764622362236
 1  16.21832648944894 -0.41911128782878  1.47293071567157
 1  18.12972419411941 -0.61973618411841  0.27773790599060
 1  17.57254183978398  0.53930581888189 -0.98090652315232
 1  18.03806849634963  2.21943833973397  0.84648003770377
 1  18.56533878807881  1.06915272477248  1.93358050805081
 1  20.41595792819282  0.12729069006901  0.58991014721472
 1  19.96901425802580  2.78622689278928 -1.25301720412041
 1  21.48434567826783  1.64792286198620 -0.80536364296430
 1  19.99103407640764  0.94983060476048 -1.83893607510751
 1  20.47107234373437  1.68721018901890  2.44599563616362
 1  22.06535939313931  1.85373540094009  1.36855101220122
 1  20.64645427482748  3.19455265486549  1.07590632853285
 1 -7.20322215531553  1.73881275447545  0.28724057015702
 1 -7.55021657005700 -0.20811098709871 -0.12587271487149

