%nproc=3
%Mem=2GB
# td=(NStates=1) B3LYP/SVP 

TD

0 1
 6 -5.17121481958196 -1.89373561566157  0.52122699859986
 6 -4.75001532053205  2.80344679637964  1.36911329722972
 6 -9.37359726942694  3.29495029422942 -0.22366083398340
 6 -9.83632168666867 -1.41097190059006 -0.84447700110011
 7 -5.19173833613361  0.39194081698170  0.79704814181418
 6 -4.50440905700570 -0.75126184718472  0.80001344474447
 6 -2.99081876837684 -0.52079851455146  1.25120011581158
 6 -3.05104006940694  0.87162605490549  1.70647975377538
 6 -4.43041223432343  1.45854567246725  1.25115871287129
 6 -2.91283985248525  1.15201271357136  3.32310017261726
 6 -2.04394646534653 -0.74514447614761  0.13623156875688
 6 -0.64433764596460 -0.70384860146015  0.48008046074607
 6  0.39067272867287 -1.03088996189619 -0.73487504510451
 8  0.06170793839384 -1.55845821242124 -1.80286389788979
 8  1.64093429052905 -0.45559233233323 -0.47708015071507
 7 -7.14233882848285  2.73287055885589  0.47431694089409
 6 -6.00935251065106  3.40943536183618  0.99542039893989
 6 -6.26752993869387  4.77970440994099  0.95685217801780
 6 -7.51331042784278  4.93073190869087  0.51423795119512
 6 -8.09643058895890  3.65512400610061  0.25847600300030
 6 -5.17506802330233  5.71016653175317  1.36796806280628
 6 -7.96098338103810  6.22208622022202  0.31167966926693
 6 -8.82370026822682  6.62224194609461 -0.66256873567357
 7 -9.14658285888589  0.87542477547755 -0.44940740914091
 6 -9.88953281618162  1.99492199089909 -0.45786505570557
 6 -11.29869373587359  1.79921348234823 -0.82093592749275
 6 -11.44388833933393  0.51021836193619 -1.07035198989899
 6 -10.16286851255125 -0.10005995769577 -0.90840408290829
 6 -12.44769327022702  2.97170567216722 -0.90042313261326
 6 -12.65218295779578 -0.25396787628763 -1.58926988668867
 6 -12.66684681538154 -0.65962922732273 -3.06346451775177
 7 -7.42638159575958 -1.25759744494449 -0.24761328982898
 6 -8.58118970647065 -2.02714144094409 -0.60960432283228
 6 -8.26678911791179 -3.40648753095310 -0.51783435073507
 6 -6.89235414451445 -3.40186701500150 -0.25377300120012
 6 -6.43470457385739 -2.08348116671667 -0.01486641044104
 6 -9.13675643324332 -4.68912966246625 -0.75960495489549
 6 -5.73474041924192 -4.30647568266827  0.06061700730073
 8 -5.75599508970897 -5.52444197429743  0.05137787188719
 6 -4.57678530713071 -3.45090585218522  0.35710477257726
 6 -3.93628742664266 -3.88796288978898  1.72084861056106
 8 -4.17735280878088 -3.41679961386139  2.78576664476448
 8 -3.10134882248225 -4.91179615251525  1.58450887878788
 6 -2.61553625742574 -5.58700814691469  2.71870401000100
 6  2.68003017161716 -0.83264716231623 -1.37166119191919
 6  4.03714696149615 -0.52596309870987 -0.59833193329333
 6  5.04376663326333  0.23866492139214 -1.03933789038904
 6  4.86620581628163  0.94914564626463 -2.33857097389739
 6  6.37858960416042  0.22285002420242 -0.19862877707771
 6  7.51528276867687 -0.42476865976598 -1.03970083698370
 6  8.82640424152415 -0.26245023012301 -0.28449679717972
 6  10.08157908360836 -0.69076340294029 -0.94835219001900
 6  10.10288632723272 -2.26366016891689 -1.12629191409141
 6  11.41274512471247 -0.14924923962396 -0.09323987968797
 6  12.62957463166317 -0.61348666586659 -0.58022254535454
 6  13.73587217661766  0.04969774357436  0.23415547104710
 6  15.19651856365637 -0.22120300180018 -0.46426998489849
 6  15.64647421922192 -1.71600046544654 -0.46532530083008
 6  16.25780652495250  0.69653417071707  0.30088911121112
 6  17.68374326312631  0.67874079177918 -0.23482738413841
 6  18.52450337463746  1.51991632053205  0.77816863306331
 6  20.06894879647965  1.65173297789779  0.38246997449745
 6  20.28175887478748  2.08360493659366 -1.04072215001500
 6  20.93855637693769  2.40872221102110  1.39052084028403
 1 -4.12608026832683  3.53492472447245  2.04813969486949
 1 -10.07068492159216  4.04749199129913 -0.29318064076408
 1 -10.55046930333033 -2.24592174767477 -1.00033950705071
 1 -2.78839116611661 -1.10746998219822  2.01545242094209
 1 -2.35343665816582  1.46433665686569  1.16634954715472
 1 -2.09364962296230  0.57355372377238  3.63514261826183
 1 -2.94344983688369  2.21888693839384  3.44649484468447
 1 -3.57009660656066  0.62721790629063  3.92316749294930
 1 -2.31483699209921 -1.76710144324432 -0.37747219441944
 1 -2.04278761816182 -0.18634244324432 -0.67436413061306
 1 -0.24991081088109  0.20347420102010  1.03565392669267
 1 -0.36429676897690 -1.53519547814781  1.18728623702370
 1 -4.45006982348235  6.03283765186519  0.39406220602060
 1 -5.52697790419042  6.80097501220122  1.83490278487849
 1 -4.45160324712471  5.31507955195520  2.15593972797280
 1 -7.68209321872187  6.97194706920692  1.01345289918992
 1 -9.04960031193119  5.94251441194119 -1.56673825992599
 1 -8.93067781438144  7.75617434493449 -0.51183140604060
 1 -12.83973833583358  3.46982616981698  0.08513069997000
 1 -11.89138298659866  3.94044800220022 -1.51355067186719
 1 -13.27860888368837  2.34941277697770 -1.56000035543554
 1 -12.80586295949595 -1.14899382608261 -0.99180393149315
 1 -13.57271429592959  0.29185334003400 -1.21638399719972
 1 -12.85619124902490  0.15592240534053 -3.63965130943094
 1 -11.68419338733873 -1.19963753735374 -3.53870282238224
 1 -13.50362711621162 -1.23896299109911 -3.35391293359336
 1 -10.21402795159516 -4.49148846864687 -0.10003230523052
 1 -9.24960893979398 -4.73130107610761 -1.87365426362636
 1 -8.51417659235923 -5.53566183318332 -0.09539749524952
 1 -3.84778663006301 -3.85669195939594 -0.31015236383638
 1 -2.21518191119112 -6.58596369206921  2.37709104320432
 1 -1.71949039543954 -4.95430891479148  3.20377482008201
 1 -3.62673568996900 -5.72352744434444  3.31935881148115
 1  2.93806771427143 -1.93834147764776 -1.60611177817782
 1  2.55877077157716 -0.32750033083308 -2.33977174437444
 1  4.02054482618262 -1.10505281958196  0.28482638563856
 1  5.41241307050705  2.09923243224322 -2.31410613041304
 1  5.55220183738374  0.39405536803680 -3.08933033463346
 1  3.69099921812181  1.04197538433843 -2.71971279637964
 1  6.76866488268827  1.26963308830883 -0.07792798389839
 1  6.17984602930293 -0.43249313891389  0.60336804420442
 1  7.37387417231723 -1.43640036463646 -1.34288504810481
 1  7.50048959145915  0.09945196579658 -2.22223705270527
 1  8.86405189258926  0.85549439073907 -0.06090594229423
 1  8.79938300110011 -0.68929308080808  0.68308112051205
 1  10.28240090869087 -0.36718416171617 -1.96373094809481
 1  9.25717603380338 -2.56422511571157 -1.71850039783978
 1  10.98812384348435 -2.68670026982698 -1.65504610951095
 1  9.96057107720772 -2.73886557215722 -0.22340060936094
 1  11.51641693909391  0.86546532663266 -0.01026244104410
 1  11.40881684518452 -0.70092532903290  0.91414134433443
 1  12.73265797639764 -1.67972954415442 -0.31411462446245
 1  12.77379553175318 -0.58725880488049 -1.63478501220122
 1  13.55147630253025  1.10794050485048  0.57849075997600
 1  13.66584081108111 -0.15857228502850  1.34042088798880
 1  15.05326767096710  0.17090829692969 -1.42252426572657
 1  14.90976652955295 -2.21431401320132 -0.94573390659066
 1  16.58435230873087 -1.95254929152915 -1.13766955085509
 1  15.65157043584358 -2.05535066766677  0.58951822322232
 1  15.92611288448845  1.81768833913391  0.05087554655466
 1  16.24693935073507  0.25308593189319  1.41688511111111
 1  18.11647286898690 -0.24706891739174 -0.25074494229423
 1  17.83100768636864  1.02183407170717 -1.22370080258026
 1  18.14505919541954  2.58502489838984  0.81735712541254
 1  18.62711496569657  1.09225503500350  1.75508265826583
 1  20.38705503790379  0.63464142514251  0.34232538873887
 1  20.04857221382138  3.04436270637064 -1.14345624802480
 1  21.34967221092109  2.09207727742774 -1.17747085368537
 1  19.73126809980998  1.32964858655866 -1.79540172167217
 1  20.66250148664867  2.27859932793279  2.35487652425242
 1  22.13819667686769  2.09889991739174  1.19541369846985
 1  20.60191982138214  3.47953115271527  1.42655139303930
 1 -7.09885171827183  1.82954182738274  0.43064491059106
 1 -7.59407095549555 -0.24711488748875 -0.27614774237424

