%nproc=3
%Mem=2GB
# td=(NStates=1) B3LYP/SVP 

TD

0 1
 6 -5.19730742884288 -1.95232147424742  0.32163703960396
 6 -4.66134645364536  2.72131858355836  1.47330371627163
 6 -9.18345825552555  3.37504830403040 -0.30736920482048
 6 -9.86658471297130 -1.32435323872387 -0.98980153355336
 7 -5.19070823312331  0.41111273417342  0.86276471347135
 6 -4.54964358045805 -0.77004372537254  0.78866230963096
 6 -3.17094678117812 -0.74910134483448  1.25558055385539
 6 -3.07684264966497  0.71116000830083  1.82138124392439
 6 -4.31784097719772  1.33851366926693  1.38690228722872
 6 -2.92306087458746  0.63063057535754  3.37011487408741
 6 -2.05035710641064 -1.08346830853085  0.14014195979598
 6 -0.52186539873987 -1.22093030963096  0.70476292899290
 6  0.42763642504250 -1.31253812671267 -0.43832539013901
 8  0.16641840944094 -1.72238460506051 -1.51469508100810
 8  1.67618781588159 -0.97379415251525 -0.14087653035304
 7 -6.95611020562056  2.79181645344534  0.50554006320632
 6 -5.87339891529153  3.26807122542254  1.02626348324832
 6 -5.99328251395139  4.73832027152715  0.98452494529453
 6 -7.27558665546555  5.04739357485749  0.52359888728873
 6 -7.95641658755876  3.71338983268327  0.24886504190419
 6 -5.06726724322432  5.77360287538754  1.56509777577758
 6 -7.94668195089509  6.28722273387339  0.27438593989399
 6 -8.71887978617862  6.74152387428743 -0.71765424422442
 7 -9.20423862446245  0.95500273327333 -0.61143361176118
 6 -9.86545040794079  2.20553305200520 -0.68904817401740
 6 -11.20568443494349  2.06067962896290 -0.97918175207521
 6 -11.43158710921092  0.73652099219922 -1.25377033173317
 6 -10.17130935663566  0.10106015431543 -0.95877912041204
 6 -12.21081958285829  3.13180168176818 -1.10532362266227
 6 -12.60352809230923  0.00263778427843 -1.66817777747775
 6 -12.83017314801480 -0.04296756115612 -3.16171434273427
 7 -7.56450540814081 -1.20073175837584 -0.24063259175918
 6 -8.67053864136414 -1.93229195599560 -0.68888225062506
 6 -8.31475391439144 -3.27070395259526 -0.85806837413741
 6 -7.01512642174217 -3.34591141944194 -0.33708133203320
 6 -6.51970307370737 -2.06544936353635 -0.01315623942394
 6 -9.09454221182118 -4.56259700920092 -1.18164715911591
 6 -5.92708965416542 -4.25768080318032  0.02776372197220
 8 -5.96447593779378 -5.50290982108211  0.00768350245025
 6 -4.66417404600460 -3.32957371897190  0.37919698179818
 6 -4.07982178007801 -3.95962005550555  1.66874340004000
 8 -4.22259733323332 -3.44330226412641  2.79013708180818
 8 -3.20509919751975 -4.89884485738574  1.41053148104810
 6 -2.62256696049605 -5.58376782288229  2.62536467606761
 6  2.75979814841484 -1.33708760636064 -0.94067809360936
 6  4.06472971977198 -0.81218172057206 -0.28520062016202
 6  5.00590284688469 -0.11746069116912 -0.86908086468647
 6  4.92683187888789  0.37003773547355 -2.30222733953395
 6  6.30275202040204  0.22995073427343 -0.17164607880788
 6  7.52548378877888 -0.58549473237324 -0.70524739163916
 6  8.75870747184718 -0.41949593469347  0.10669232173217
 6  10.13748467416742 -0.89395372197220 -0.58451580638064
 6  10.12523856245625 -2.37778158105811 -0.58909819471947
 6  11.33558740894089 -0.31995631033103  0.12277172147215
 6  12.65684735893589 -0.53311862906291 -0.46650117321732
 6  13.79740833023302  0.18329110291029  0.24078613411341
 6  15.15634454625462 -0.12893377487749 -0.37497105500550
 6  15.72838241004100 -1.60624949034903 -0.28915768406841
 6  16.24303504780478  0.85093961126113  0.29950897319732
 6  17.67436232503250  0.78740165786579 -0.24130803220322
 6  18.54879580388039  1.94805913481348  0.39546036223622
 6  19.99349125072507  2.15536334093409 -0.20562883538354
 6  19.96198689758976  2.55247182328233 -1.63573165096510
 6  20.90134265556556  2.96987832663266  0.66811860006001
 1 -3.93964162446245  3.42373360536054  1.65679055995600
 1 -9.82648050115012  4.25932317441744 -0.26861818451845
 1 -10.80728498489849 -2.15961311681168 -1.15005447854786
 1 -2.86351867886789 -1.65499473467347  1.96693756945695
 1 -2.27571888638864  1.25962618581858  1.45350826302630
 1 -1.92013227122712  0.45745211361136  3.75810491449145
 1 -3.34231972387239  1.87969301900190  3.75019521472147
 1 -3.73608320522052 -0.17550236573657  3.66470164636464
 1 -2.39776528492849 -2.05685041814181 -0.24823927112711
 1 -2.13738707810781 -0.44969877887789 -0.94874156835684
 1 -0.28051387118712 -0.34715086148615  1.38991935323532
 1 -0.65559589888989 -2.16786874547455  1.40948845724572
 1 -4.42031684818482  5.84376874497450  0.65913871367137
 1 -5.80521572797280  6.57902281698170  2.01806110071007
 1 -4.41760984778478  5.34667271127113  2.46703083708371
 1 -7.65558056745675  7.17329720422042  1.04965651955195
 1 -8.89920527242724  6.15805596609661 -1.68509009510951
 1 -9.15684043064306  7.81126985448545 -0.62231245414541
 1 -12.39880424242424  3.59260844804480 -0.15791360446045
 1 -11.94986883518352  3.82279623702370 -1.66161547834783
 1 -13.15133615641564  2.77698553425343 -1.51539589498950
 1 -12.61260363356336 -1.01626055275528 -1.26656140724072
 1 -13.45966299079908  0.55843999869987 -0.96791915071507
 1 -12.60427605750575  0.96716352945295 -3.38793613791379
 1 -12.16874184218422 -0.67892546614661 -3.52949190129013
 1 -13.70615736923692 -0.56283537833783 -3.49511705400540
 1 -9.95182173097310 -4.45639495929593 -0.51594389638964
 1 -9.40368434733473 -4.54861280728073 -2.17841473967397
 1 -8.45294046874687 -5.51932019901990 -0.76370432593259
 1 -3.75801765316532 -3.57318360856086 -0.35951730033003
 1 -1.92648304130413 -6.19073416911691  2.22631596569657
 1 -2.03131157755776 -5.00402388628863  3.28003244584458
 1 -3.43600661706171 -5.98337342894289  3.13880075567557
 1  2.70327423492349 -2.49995763926393 -1.00397156415642
 1  2.59666456095610 -0.99578715951595 -1.97250501770177
 1  4.12387515921592 -1.11553386768677  0.74072197519752
 1  5.29210103930393  1.38984149314932 -2.14088880868087
 1  5.77279389658966  0.11244720722072 -2.87361876347635
 1  4.00910102830283  0.21944313111311 -2.82078290339034
 1  6.49955797199720  1.41065719071907 -0.06586677777778
 1  6.13513155785579  0.01921203160316  0.99145685308531
 1  7.12745953085309 -1.45545226982698 -0.78732949254926
 1  7.69977952045205 -0.26466444584458 -1.71832666166617
 1  9.06535202260226  0.62346118741874  0.43892404070407
 1  8.61659472227223 -0.69826397789779  1.12494530693069
 1  10.01666433503350 -0.55196263956396 -1.52101667666767
 1  9.18880919711971 -2.80978967216722 -1.12746129392939
 1  11.07868289938994 -2.96547814761476 -1.02794339923992
 1  9.97535255535554 -2.85734742034203  0.51952368306831
 1  11.17874317171717  0.68139691979198  0.13693227842784
 1  11.43186915041504 -0.48041327782778  1.31582151235123
 1  12.98115282588259 -1.59992156335634 -0.26978019101910
 1  12.71116926912691 -0.25176525552555 -1.50944247794779
 1  13.68434958985899  1.25451516231623  0.37297020792079
 1  14.09412363936394 -0.07055348314831  1.37107395329533
 1  15.18314065826583  0.15619682578258 -1.48633064636464
 1  15.03442899579958 -2.35572815461546 -0.94846417961796
 1  16.68064193769377 -1.62664670127013 -0.96520230413041
 1  15.70892617141714 -2.19717485008501  0.72389166056606
 1  15.97858813201320  1.80615718601860  0.45651611061106
 1  16.35744040084008  0.35619624292429  1.22310573317332
 1  18.18142936463646 -0.22914712521252 -0.25896576437644
 1  17.56043062866287  1.01395328362836 -1.26393482598260
 1  18.00006469596960  2.88501489738974  0.22236762646265
 1  18.81757401160116  1.71654746424642  1.43124027402740
 1  20.43971030343034  1.09504746574658 -0.23857270107011
 1  19.64048140474048  3.83213148324832 -1.97468937133713
 1  20.86925416911691  2.42326039573957 -2.26871997859786
 1  19.21411638463846  2.03231885358536 -2.27493967546755
 1  20.89683491999200  2.52103357135714  1.65625666226623
 1  21.94403726092609  2.97803783118312  0.23293745084508
 1  20.45403503290329  4.00248344794479  0.63142188008801
 1 -7.16566839993999  1.82953182638264  0.32760460656066
 1 -7.53596514491449 -0.25019519551955 -0.24329445704570

