%nproc=3
%Mem=2GB
# td=(NStates=1) B3LYP/SVP 

TD

0 1
 6 -5.12178987708771 -2.00787702980298  0.37818269416942
 6 -4.73883420242024  2.74513096479648  1.44394077997800
 6 -9.38099800950095  3.41982278147815 -0.23278174607461
 6 -9.75318337283728 -1.36735753915392 -0.98800135353535
 7 -5.24676383868387  0.37778940184018  1.00671910891089
 6 -4.55212382848285 -0.74616133713371  0.81969541294129
 6 -3.09409909640964 -0.64025045974597  1.33332832863286
 6 -3.15043000840084  0.80302919521952  1.92262136793679
 6 -4.41488068116812  1.40089990789079  1.38526212321232
 6 -2.98080664916492  0.86294380668067  3.37504536713671
 6 -2.09108117881788 -0.74415437713771  0.18373631923192
 6 -0.55475868806881 -0.79193741034103  0.69211166386639
 6  0.39457311871187 -1.20255712861286 -0.42892445004500
 8  0.05666743434343 -1.67595996259626 -1.52307591909191
 8  1.68616881398140 -0.98932570567057 -0.09835227792779
 7 -7.10905550015002  2.85649292109211  0.57247675687569
 6 -5.95899747514751  3.44739915821582  1.11488234513451
 6 -6.25456864256426  4.75844228372837  1.13989048184818
 6 -7.57835693249325  4.93620245574557  0.67598412581258
 6 -8.10048099399940  3.67490598429843  0.25841599699970
 6 -5.28929944644464  5.81042655775578  1.69507077307731
 6 -8.18361564426443  6.28270228182818  0.59147764906491
 6 -8.97182508070807  6.76112583448345 -0.35098757755776
 7 -9.25968416901690  0.98913614661466 -0.39500196859686
 6 -9.94963882678268  2.15616811551155 -0.62543181238124
 6 -11.37313117961796  1.98621218221822 -1.09483331723172
 6 -11.40039398989899  0.61667900800080 -1.36088104280428
 6 -10.00586281198120  0.02795284358436 -0.86806004850485
 6 -12.22519102000200  3.02701120272027 -1.23765685598560
 6 -12.54314205370537 -0.21817429692969 -1.82500346004600
 6 -12.48168829952995 -0.55264852925293 -3.41109928122812
 7 -7.47148610621062 -1.28326001120112 -0.17198572707271
 6 -8.55768735623562 -2.09140786758676 -0.71224458685869
 6 -8.13346578557856 -3.37207408960896 -0.76254882218222
 6 -6.73374828392839 -3.41336816511651 -0.39746737063706
 6 -6.45043614701470 -2.14537735633563 -0.03339826362636
 6 -8.95291804940494 -4.51559230873087 -1.23266226062606
 6 -5.69665661086109 -4.31111614671467 -0.06836589098910
 8 -5.51776126632663 -5.48674820492049 -0.19384665056506
 6 -4.46327395599560 -3.38572933453345  0.45418448054805
 6 -3.82812661056106 -3.78388248174817  1.71093761946195
 8 -4.00648572207221 -3.28672660656066  2.79722779087909
 8 -3.10548923652365 -4.94056902980298  1.47787821572157
 6 -2.53504820862086 -5.44178362446245  2.65519765936594
 6  2.67707987658766 -1.21868576617662 -1.12401642744274
 6  4.02964621142114 -0.71276177857786 -0.58256035613561
 6  4.91618387498750  0.04009506440644 -1.30283424002400
 6  4.78218741444144  0.38708944064406 -2.80710782758276
 6  6.26682842804280  0.54802254145415 -0.61479039323932
 6  7.49934117451745 -0.38241442434243 -1.12311917881788
 6  8.72822442354235 -0.06969095419542 -0.18716706420642
 6  10.06379730543054 -0.82531685828583 -0.57760511531153
 6  9.99480551915192 -2.40618442134213 -0.40559984488449
 6  11.23633748394839 -0.27891220592059  0.23034247854785
 6  12.66450812501250 -0.66078139533953 -0.32043656675668
 6  13.80030862026203  0.06811958575858  0.35854791029103
 6  15.14507341914191 -0.29591047254725 -0.07396095399540
 6  15.66262583438344 -1.80636950235023  0.21161239293929
 6  16.31852259655966  0.71399591689169  0.42982200450045
 6  17.67521241004101  0.66299921762176 -0.31145504690469
 6  18.60923184748475  1.78632296119612  0.37890870707071
 6  19.97102900450045  1.71161896649665 -0.15348362086209
 6  20.01524222312231  2.00423699979998 -1.66167424522452
 6  20.82175469676968  2.82863420222022  0.57052884108411
 1 -3.90741840214021  3.61238247024702  1.72083696459646
 1 -9.94581243434343  4.34806204830483 -0.33960528322832
 1 -10.62204646104610 -1.94384153965397 -1.42153162626263
 1 -2.95073740074007 -1.28580781598160  2.30048092379238
 1 -2.27341865636564  1.49286951015101  1.66656956915692
 1 -2.14010426842684  0.51552792119212  3.78907801180118
 1 -3.07704319621962  1.84066911661166  3.86408660386039
 1 -3.73007260416042  0.02247743224322  3.96424160036004
 1 -2.12546805520552 -1.75567030013001 -0.37791223842384
 1 -2.06606994639464  0.14231042204220 -0.71510820502050
 1 -0.14098991879188  0.20458431203120  1.00212057335734
 1 -0.18683902320232 -1.48018997759776  1.57039454785478
 1 -4.45528034453445  6.03521788988899  0.85932873267327
 1 -5.74525973237324  6.88260317501750  1.91889118371837
 1 -4.75472355915592  5.50741878587859  2.71111524552455
 1 -7.96354136353635  7.04762463696370  1.32172372627263
 1 -9.13236858875888  6.09806996749675 -1.35795738183818
 1 -9.23024777137714  7.90044877237724 -0.42052227512751
 1 -12.00119448144815  3.68220740794079 -0.26358417151715
 1 -11.96052990129013  3.66080003740374 -2.27331664846485
 1 -13.32909393219322  2.46016385208521 -1.23519787518752
 1 -12.51850422362236 -1.15335426212621 -1.43081783288329
 1 -13.53459048354835  0.26443059775978 -1.74605696449645
 1 -11.99303493339334  0.41644845794579 -3.87088443274327
 1 -11.57436240424042 -1.18901647524752 -3.60278923102310
 1 -13.60338709220922 -0.65280437523752 -3.97352489478948
 1 -10.07253380218022 -4.56914623442344 -0.75440774277428
 1 -9.09195317421742 -4.43361130713071 -2.50507740594059
 1 -8.67299247394739 -5.35885415241524 -0.98196615211521
 1 -3.76660851225123 -3.45399168936894 -0.32552390099010
 1 -1.93163355635564 -6.50885598129813  2.45112844694469
 1 -2.02536098249825 -4.79816330023002  3.28106254885489
 1 -3.23887690409041 -5.77287237883788  3.39670654625463
 1  2.66020992849285 -2.15187283078308 -1.48263943094309
 1  2.23596849134914 -0.43402098289829 -1.80411817901790
 1  4.02520529222922 -0.86786910121012  0.49982788578858
 1  5.20980280948095  1.42381489048905 -3.10735545534554
 1  5.17532414961496 -0.40630466796680 -3.57677907950795
 1  3.81555167336734  0.49402058885889 -3.23669449454945
 1  6.54230224642464  1.75735186018602 -0.80077026812681
 1  6.13062110681068  0.44710482088209  0.37409511691169
 1  6.94420120502050 -1.45488221282128 -0.95805656525653
 1  7.72244178667867 -0.28049602900290 -2.17664249324932
 1  9.11672716011601  1.08685752705271 -0.32506235793579
 1  8.62602566536654 -0.13916806830683  0.85438825122512
 1  10.28221088968897 -0.67664510781078 -1.78231280628063
 1  9.19763007920792 -2.96147484068407 -0.92127067486749
 1  10.97840287138714 -2.93101470127013 -0.59873047794779
 1  9.90573559365937 -2.78668035363536  0.58631036173617
 1  10.88067336473648  0.93603238333833  0.21975056025603
 1  11.19724568806881 -0.46368160466047  1.32572250245024
 1  13.00861557215722 -1.82602417361736 -0.37442065506551
 1  12.84521267346735 -0.30528060706071 -1.37425895959596
 1  13.44097525242524  1.10058976977698  0.44539745064506
 1  13.84947917491749 -0.07784421222122  1.55724257015702
 1  15.10337268146815 -0.18978777267727 -1.21995400870087
 1  15.11061661456145 -2.59576215801580 -0.53184251745175
 1  16.70130400390039 -1.95451948854885 -0.22645842974297
 1  15.34836011481148 -2.12755788838884  1.31464073547355
 1  15.91585185838584  1.70912748304831  0.26418687768777
 1  16.43405806260626  0.63081370467047  1.64486790939094
 1  18.11531275297530 -0.30675488598860 -0.18906877467747
 1  17.69049363496350  0.78346023432343 -1.33347177967797
 1  18.29327401690169  2.83450984688469  0.07944333403340
 1  18.57181943614362  1.70597640714071  1.50903805380538
 1  20.36665299769977  0.76405436643664  0.08442959915992
 1  19.89793715031503  3.24203247334733 -1.84947685008501
 1  21.01579882358236  1.94929299899990 -2.21865497209721
 1  19.22815778877888  1.35126074777478 -2.21065324682468
 1  20.89952518901890  2.84730619861986  1.70843187978798
 1  21.90179303650365  2.98787881528153  0.31355551265127
 1  20.43918354775478  3.96754995459546  0.23983272117212
 1 -7.05634746784679  1.85188406160616  0.30441228732873
 1 -7.60453200160016 -0.30323049904990  0.04760463286329

