%nproc=3
%Mem=2GB
# td=(NStates=1) B3LYP/SVP 

TD

0 1
 6 -5.23081077917792 -1.98952519461946  0.48177305320532
 6 -4.68795911491149  2.74432088378838  1.25371175707571
 6 -9.29846975667567  3.34195499469947 -0.20285875377538
 6 -9.87848590309031 -1.45505630903090 -0.87567012041204
 7 -5.11357051935194  0.40875249814982  0.63771220822082
 6 -4.45658427452745 -0.78383510451045  0.62784622802280
 6 -3.00529021552155 -0.59278571327133  1.12116711251125
 6 -3.00219518491849  0.87004589688969  1.69893899969997
 6 -4.39822901600160  1.41669148704870  1.21037463446345
 6 -3.00747931643164  0.95269278157816  3.20123798639864
 6 -2.04033610431043 -0.78461842354235 -0.03322537693769
 6 -0.61588480068007 -0.88772698929893  0.46916936963696
 6  0.33170683208321 -1.20432730563056 -0.55667722532253
 8  0.06152792039204 -1.53890625722572 -1.65862947444744
 8  1.50803100020002 -0.91389816291629 -0.09169161186119
 7 -7.05646024062406  2.79482675447545  0.35175468466847
 6 -5.90583215861586  3.35311973027303  0.75970682758276
 6 -6.15503868956896  4.80090653015302  0.84226071887189
 6 -7.45147424422442  5.00084892039204  0.39119564696470
 6 -7.95646659255926  3.69385787948795  0.02388254365437
 6 -5.27680819731973  5.77455297039704  1.35961722772277
 6 -8.20648793149315  6.27196120772077  0.31845034633463
 6 -9.13883178137814  6.54324404630463 -0.61341382018202
 7 -9.20857905850585  0.88957619061906 -0.37898036643664
 6 -9.89460332323232  2.07454995369537 -0.53570283948395
 6 -11.32680654715472  1.91286484748475 -0.80003383728373
 6 -11.50331428192819  0.55012235233523 -0.99507446214621
 6 -10.11708393409341 -0.01505145684568 -0.76792003450345
 6 -12.23994249514952  3.03773227482748 -1.00538362866287
 6 -12.77150488998900 -0.15528800830083 -1.42373333303330
 6 -12.86011614231423 -0.18907217161716 -3.06119429072907
 7 -7.51012997059706 -1.28139982518252 -0.09472800130013
 6 -8.63939552705271 -1.94817354415442 -0.50956431883188
 6 -8.22696513551355 -3.41449833203320 -0.58272083938394
 6 -6.83516842594259 -3.43605043334333 -0.20302792669267
 6 -6.49849095249525 -2.10857367596760  0.07288236443644
 6 -9.06797955555555 -4.45372612211221 -1.11508050245025
 6 -5.72926987218722 -4.40775581068107  0.01913285888589
 8 -5.67890738093809 -5.53744327442744 -0.12240950685068
 6 -4.61212884148415 -3.30847160876088  0.48678774087409
 6 -3.95158895679568 -3.83028712221222  1.76487301300130
 8 -4.17361243474347 -3.41788972287229  2.87016508460846
 8 -3.11269995759576 -4.90025499839984  1.56971739963996
 6 -2.62956766056606 -5.50954040014001  2.72679481908191
 6  2.54527669626963 -1.06713061066107 -0.98335236103610
 6  4.08353159996000 -0.85936643904390 -0.43906600670067
 6  4.99297155375538 -0.04340328542854 -0.90176413301330
 6  4.98902809850985  0.81580231193119 -2.12246936373637
 6  6.37106885208521  0.18074581378138 -0.20622953715372
 6  7.53503474387439 -0.48697488038804 -0.91458832573257
 6  8.94085568666867 -0.29914389948995 -0.15974432193219
 6  10.21857278297830 -0.88382270887089 -0.78835619041904
 6  10.14724076267627 -2.30846464936494 -1.11871115601560
 6  11.31615546574658 -0.40457477217722  0.05009445374537
 6  12.70184185838584 -0.46664198139814 -0.68035255835584
 6  13.87986657605761 -0.03336056225623  0.18402045754575
 6  15.32224113591359 -0.11014189568957 -0.41720527842784
 6  15.70616018781878 -1.58350721612161 -0.61578034633463
 6  16.25508625292529  0.70789530683068  0.38675769806981
 6  17.64058894769477  0.88827174487449 -0.20810471187119
 6  18.68162908720872  1.71256558545855  0.71618243444344
 6  20.11638353995399  1.72036984158416  0.11828355585559
 6  20.18041874077408  2.74224080018002 -1.19737781558156
 6  21.12377489878988  2.20654199299930  1.21977376557656
 1 -3.96828448874887  3.26671790379038  1.78202308320832
 1 -9.88151600470047  4.17730497259726 -0.11362268496850
 1 -10.87527178357836 -1.92075923142314 -0.93750322342234
 1 -2.60961328832883 -1.27213644884488  1.89476035173517
 1 -2.09266058055806  1.52550277347735  1.32998591079108
 1 -2.14010426842684  0.64726109450945  3.80267937193719
 1 -3.31352684458446  1.96437148684868  3.76606680188019
 1 -3.83810340724072  0.41298648314831  3.37691286748675
 1 -2.49549505790579 -1.56619135223522 -0.65123957115711
 1 -1.97357069646965  0.28585477647765 -0.50978767296730
 1 -0.14084990479048 -0.07347349374937  0.95941630293029
 1 -0.72306264556456 -1.67527948654865  1.32322983138314
 1 -4.27424224072407  5.72025639373937  0.82959575937594
 1 -5.63680888728873  6.87031194589459  0.88413770837084
 1 -5.29223731053105  5.95745378937894  2.43171730573057
 1 -8.14916992639264  6.81171104560456  1.10987254115412
 1 -9.28584393629363  5.74798495899590 -1.46635822192219
 1 -9.66655140174017  7.47027575507551 -0.57917814071407
 1 -12.52131649364937  3.61219040624062  0.05874806170617
 1 -11.75309915821582  3.83039699709971 -1.70785010181018
 1 -13.19506052885288  2.58890672637264 -1.53189754515452
 1 -12.68014038723872 -1.31152007870787 -1.18519327042704
 1 -13.59571659615962  0.33817797249725 -0.92915527432743
 1 -12.96725235513551  0.84059087218722 -3.58159550385039
 1 -12.03302827082708 -0.81598917251725 -3.53117206930693
 1 -13.78871562506251 -0.68404749954995 -3.23085062736274
 1 -9.93263981278128 -4.56489580938094 -0.21284358635864
 1 -9.77872185108511 -4.12262020802080 -1.99164606280628
 1 -8.66191136583658 -5.47453572057206 -1.04464241974197
 1 -3.76020787218722 -3.40614690489049 -0.25484683328333
 1 -2.03101349434944 -6.42403749944994  2.38682201630163
 1 -2.25944439083908 -4.82303578747875  3.43675811841184
 1 -3.54970798719872 -5.87285237683769  3.19023589918992
 1  2.41953586108611 -2.10395803930393 -1.35669683668367
 1  2.54056895139514 -0.30674825562556 -1.98238600580058
 1  4.19885265696570 -1.25161747604760  0.71346924992499
 1  5.05400722992299  1.84318682768277 -1.93644836463646
 1  5.83599021622162  0.57230319281928 -2.75180658225823
 1  3.92337245544554  0.74272545934593 -2.71393221832183
 1  6.16297431363136  1.23787991299130 -0.17648783988399
 1  6.09877792249225 -0.21490137973797  0.74781248864886
 1  7.50566735163516 -1.54752147674767 -1.12353311291129
 1  7.75143468596860 -0.20333831323132 -1.99559438843884
 1  9.14741022842284  0.74040288158816 -0.08805865756576
 1  8.67747080988099 -0.62513666516652  0.88287109950995
 1  10.23218588718872 -0.33221066436644 -1.75618019301930
 1  9.18053837003700 -2.55707440064006 -1.75428397619762
 1  11.08531356245624 -2.65308690849085 -1.69758036293629
 1  10.00756577667767 -2.83543522912291 -0.20274854415442
 1  11.23669896729673  0.67567634773477  0.33991257645765
 1  11.48249421292129 -0.82559779627963  1.01928185838584
 1  12.71145585618562 -1.60563213441344 -0.97269048204820
 1  12.71539969216922  0.19011893289329 -1.55675720942094
 1  13.52755391029103  1.05699541034103  0.62915582648265
 1  13.85314954195420 -0.74469089688969  1.14735158105811
 1  15.19223156735674  0.20043124922492 -1.54509652295230
 1  15.01667722062206 -2.19115169696970 -1.30762009520952
 1  16.63779765326533 -1.52961699829983 -1.04561034493449
 1  15.81516679547955 -2.20854598719872  0.34084335573557
 1  15.94790506370637  1.73844041434143  0.54885534453445
 1  16.36155081188119  0.38840946424642  1.40857428002800
 1  18.03347456915692 -0.06491070157016 -0.41471133893389
 1  17.49615420102010  1.45559744804480 -1.08722715521552
 1  18.21162585208521  2.73830022592259  0.90551594129413
 1  18.48641089528953  1.13643945344534  1.72748989898990
 1  20.38225455785578  0.64514247524752 -0.18636748054805
 1  19.73269062566257  3.66316458655866 -0.96479838223822
 1  21.20886813051305  3.00121819151915 -1.63866697329733
 1  19.66600157315732  2.35803142484248 -2.22092427392739
 1  21.39352458895890  1.37916938493849  2.08084912151215
 1  22.15363822102210  2.59990001740174  0.94769892699270
 1  20.82825245464547  3.22871607120712  1.70816955485549
 1 -6.98638047114711  1.78051692489249  0.09459130523052
 1 -7.45575712411241 -0.27734791079108 -0.05402553015302

