%nproc=3
%Mem=2GB
# td=(NStates=1) B3LYP/SVP 

TD

0 1
 6 -5.26100379847985 -1.97186342844284  0.49143401930193
 6 -4.64092441144114  2.76273272497250  1.40023640954095
 6 -9.36169607930793  3.35942674187419 -0.19602807070707
 6 -9.84429248374837 -1.37390819421942 -0.93549610301030
 7 -5.14974413671367  0.41336295919592  0.57554599159916
 6 -4.55182379847985 -0.80242696369637  0.72589603300330
 6 -3.10921060756076 -0.68010444514451  1.23993898969897
 6 -3.15784074947495  0.78283717601760  1.83927303310331
 6 -4.39663885698570  1.38557837573757  1.26204980198020
 6 -3.08738730723072  0.94183169546955  3.27747561016102
 6 -2.10843291399140 -0.97666762846285  0.09356730233023
 6 -0.64386759895990 -0.98105632223222  0.65907836053605
 6  0.41147480888089 -1.18264513741374 -0.48524008160816
 8  0.23461522912291 -1.57433980058006 -1.60690430193019
 8  1.67007720482048 -0.82005877897790  0.01727928522852
 7 -6.94848944354435  2.72882015381538  0.39030854005401
 6 -5.84586616201620  3.33296771507151  0.90405126202620
 6 -6.16924010971097  4.74379081858186  1.01962845564556
 6 -7.42390148694869  4.95994482998300  0.39930645804580
 6 -7.95509645554556  3.65427392109211  0.13272342774277
 6 -5.24832534903490  5.87886340144014  1.43204447044704
 6 -8.07408469116912  6.29405341694169  0.23871237253725
 6 -9.00009790799080  6.55170489238924 -0.63418589738974
 7 -9.22216041664166  0.94241147414741 -0.45697816621662
 6 -9.86985084798480  2.13471597029703 -0.53853312251225
 6 -11.21056492299230  1.90611417241724 -0.93278711261126
 6 -11.35108905940594  0.56029336943694 -1.15119007370737
 6 -10.06665889158916 -0.03054300600060 -0.91299454195420
 6 -12.24434293519352  3.10318882048205 -1.04600769106911
 6 -12.61673941344134 -0.23271575107511 -1.57508846854685
 6 -12.59666979767977 -0.43393665806581 -3.06392456375638
 7 -7.60539949754975 -1.27314900010001 -0.28552708120812
 6 -8.61080266776678 -1.93805253205321 -0.68371173357336
 6 -8.27516995599560 -3.41563844604460 -0.80245281258126
 6 -7.00829573867387 -3.49384621292129 -0.27122474637464
 6 -6.54189529292929 -2.15738855745575  0.03306838303830
 6 -9.11319407700770 -4.52895364486449 -1.33820281468147
 6 -5.81548849404941 -4.40077511261126 -0.05097415181518
 8 -5.77111660186019 -5.53640317041704 -0.15115238113811
 6 -4.61664929352935 -3.40199096069607  0.42119118121812
 6 -4.03064686258626 -3.87888198169817  1.75645217091709
 8 -4.36786185968597 -3.56942487638764  2.87614568266827
 8 -3.12890157775778 -4.92368734163416  1.55789621752175
 6 -2.70884558835884 -5.53871331743174  2.70367250685069
 6  2.73785595419542 -1.03593749134914 -0.97186121192119
 6  4.09395264206421 -0.61346184858486 -0.29166126622662
 6  4.96649890649065  0.16821787668767 -0.76115007160716
 6  4.93683287898790  0.98016874857486 -2.01025814261426
 6  6.35151689688969  0.29852759195920 -0.00443935813581
 6  7.54702594299430 -0.23791997489749 -0.72601946884689
 6  8.79763136423642 -0.29695368046805  0.18277993049305
 6  10.02673359905991 -0.62671699829983 -0.67334468926893
 6  10.12255829442944 -2.14130793369337 -1.16893617851785
 6  11.28102195239524 -0.30849516421642  0.18287773207321
 6  12.64235590979098 -0.36627194439444 -0.43117764086409
 6  13.79162775217522  0.13136591039104  0.36447850335034
 6  15.19711862366237 -0.16660754225423 -0.27653121102110
 6  15.64348392019202 -1.64084294969497 -0.15264403270327
 6  16.27377812211221  0.83921843914391  0.41820084238424
 6  17.65523041184118  0.86040895859586 -0.32873677507751
 6  18.74042496679668  1.63789811871187  0.38269908610861
 6  20.18330023162316  1.57408521312131 -0.18145641814181
 6  20.18081878077808  2.08255483158316 -1.67967604540454
 6  21.21509403070307  2.40841218001800  0.56967875607561
 1 -3.82797045734573  3.46637786978698  1.64442932383238
 1 -9.95606345944594  4.28927616971697 -0.28189951265127
 1 -10.64669892629263 -2.11171832733273 -1.19004847794779
 1 -2.89927225422542 -1.41147038223822  1.90781165686569
 1 -2.19401071557156  1.28346857005701  1.52196510871087
 1 -2.27706796479648  0.49181554995500  3.70165926992699
 1 -3.07238273017302  1.85850089978998  3.62843303850385
 1 -4.12113171007101  0.54195938043804  3.85767094329433
 1 -2.25571107950795 -1.84774950805081 -0.43466791399140
 1 -2.30360369976998 -0.15501931093109 -0.53544023822382
 1 -0.45170098989899  0.02200605420542  1.03172353365336
 1 -0.52021236053605 -1.66166812541254  1.43383089148915
 1 -4.00446526302630  5.79086345444544  1.18586138593859
 1 -5.56086129252925  6.93291820652065  1.25325462006201
 1 -5.12363044984498  5.77925596959696  2.55730986498650
 1 -7.53396840624062  7.01311118561856  0.89859141304130
 1 -9.22124747664767  5.79304946544654 -1.58717030313031
 1 -9.49655440204020  7.62878160566057 -0.76753697659766
 1 -12.33521788378838  3.80712990019002 -0.11071888498850
 1 -11.88238208650865  3.65266922432243 -1.90619993679368
 1 -13.21322234503450  2.70273810951095 -1.26740109550955
 1 -12.64155652885288 -1.21437036373637 -1.07588233933393
 1 -13.34996202070207  0.46160031473147 -1.28295065386539
 1 -12.40388601850185  0.66069288238824 -3.51467881218122
 1 -11.47911287928793 -0.62138971257126 -3.59828878097810
 1 -13.28052480598060 -1.00154924972497 -3.56351389368937
 1 -10.21568811761176 -4.58456777657766 -1.20886318831883
 1 -8.82654663356336 -4.47546549254925 -2.61565846404640
 1 -8.63698887358736 -5.46092435943594 -0.91380933643364
 1 -3.90583243464346 -3.39947623782378 -0.50277162576258
 1 -2.19735012801280 -6.49971506720672  2.36088942304230
 1 -1.95645409180918 -4.97152063596360  3.28784322692269
 1 -3.39453246964696 -6.01249634123412  3.34188106370637
 1  2.57872177967797 -2.14899254275428 -1.31524269126913
 1  2.35363025752575 -0.37204478527853 -1.77840560776078
 1  4.29091186288629 -1.31008332263226  0.59085698869887
 1  5.39886171537154  2.02626513551355 -1.84411913171317
 1  5.60071668886889  0.55435139763976 -2.80977237883788
 1  3.85670578877888  1.01933312011201 -2.54923574867487
 1  6.65556357255725  1.38455458045805  0.34407421632163
 1  6.10659870457046 -0.32639252885288  0.89759746714672
 1  7.17853463836384 -1.27093381798180 -1.10456121572157
 1  7.65755529802980  0.58474049464947 -1.67210203920392
 1  8.98338382578258  0.69037787908791  0.73107325562556
 1  8.63526658945895 -0.97857200870087  1.16545935833583
 1  9.87605027362736 -0.02513995729573 -1.72785736073607
 1  9.24386470267027 -2.64376306950695 -1.63682223002300
 1  10.90301533263326 -2.34436603640364 -1.64693529842984
 1  9.96681170127013 -2.73963564916492 -0.21711998129813
 1  10.99905520292029  0.75444422452245  0.76650523572357
 1  11.25904186768677 -1.05280051655166  1.08621855205521
 1  12.89831454205421 -1.48111968316832 -0.43228644164416
 1  12.70968912111211  0.08267818881888 -1.38787032073207
 1  13.81329248414841  1.32042175297530  0.69844275517552
 1  13.70671489848985 -0.39110553835384  1.34904175007501
 1  15.04783712791279 -0.15840463436344 -1.38933094639464
 1  15.09815536843684 -2.22792537433743 -0.81303063626363
 1  16.69986385988599 -1.70127416401640 -0.74233001690169
 1  15.64981025982598 -1.98910404300430  0.82832210361036
 1  16.07354762796280  1.86058262856286  0.45027548654865
 1  16.37766242304230  0.43156377967797  1.44172759535954
 1  17.97254847654765 -0.19378358885889 -0.26916678447845
 1  17.54084867046705  1.30052194049405 -1.51469990249025
 1  18.38113280278028  2.68909530543054  0.41292668236824
 1  19.03425567976798  1.64355016451645  1.43945109510951
 1  20.25477180958096  0.44496245724572 -0.20688953275328
 1  19.85593294989499  3.14551282138214 -1.96763866626663
 1  21.07451469516952  1.97417548724873 -2.24806791339134
 1  19.46900187318732  1.49599522122212 -2.36542872437244
 1  20.89655489198920  2.16074754275428  1.51326236283628
 1  22.23410626782678  2.44905493289329  0.10756491359136
 1  20.85084471387139  3.58429162876288  0.42430116801680
 1 -7.10198203130313  1.68331720492049  0.09250109620962
 1 -7.73657520592059 -0.13386356235624  0.04215408780878

