%nproc=3
%Mem=2GB
# td=(NStates=1) B3LYP/SVP 

TD

0 1
 6 -5.14370206830683 -1.92951919401940  0.54232910881088
 6 -4.77983830283028  2.72458891059106  1.51703808970897
 6 -9.37789769946995  3.38247904710471 -0.29308777667767
 6 -9.86013406790679 -1.43004380778078 -0.92898545194519
 7 -5.18919808210821  0.41475309820982  0.80058849584958
 6 -4.55439405550555 -0.74085080608061  0.86094953835384
 6 -3.09740942744274 -0.56007244194419  1.38265326112611
 6 -3.12543750915092  0.77845673797380  2.02294139993999
 6 -4.49769896299630  1.32689250715071  1.48248184518452
 6 -3.08193676217622  0.84231174347435  3.44330219281928
 6 -2.06704877557756 -0.77932789448945  0.25936388198820
 6 -0.58923213541354 -0.90400861746175  0.60579303200320
 6  0.42891655305531 -1.09881675457546 -0.40629218681868
 8  0.10883265086509 -1.28705107170717 -1.60619423092309
 8  1.76784698179818 -1.14317109020902 -0.03966640934093
 7 -7.03879847444744  2.72608988078808  0.42221173037304
 6 -5.88431000640064  3.35964038233823  1.06858771567157
 6 -6.18700188588859  4.72451889138914  1.00831732453245
 6 -7.44323342014201  4.93983281878188  0.42038856625663
 6 -7.97919886578658  3.61175966966697  0.19197935333533
 6 -5.20223073957396  5.76904241934193  1.28799006500650
 6 -7.98960624332433  6.29761377297730  0.23597209850985
 6 -8.97777567576758  6.66292601450145 -0.65178765756576
 7 -9.22698089868987  0.88356558955896 -0.40448291669167
 6 -9.83167703060306  2.07708020672067 -0.52902217141714
 6 -11.24754862136214  1.92751631263126 -0.99547338123812
 6 -11.48751270177018  0.57485482558256 -1.22578753345335
 6 -10.14665689138914 -0.08800875257526 -0.92202544504450
 6 -12.29149765066507  3.07319582118212 -1.18642173247325
 6 -12.57526526602660 -0.21147362686269 -1.74568552825283
 6 -12.70590072077208 -0.50725398979898 -3.32116028732873
 7 -7.56501545914591 -1.29801148634863 -0.25920444894489
 6 -8.66199778727873 -1.98150687748775 -0.49239260166017
 6 -8.29421186018602 -3.39249613181318 -0.62605517281728
 6 -6.87542245134513 -3.38251507980798 -0.20084770867087
 6 -6.48137924132413 -2.04218703730373  0.10042511871187
 6 -9.20512326992699 -4.47925867536754 -1.06227522192219
 6 -5.84611155635564 -4.20488552365237  0.05610655625563
 8 -5.69856934713471 -5.45417494759476  0.05796853095310
 6 -4.57759538813881 -3.29874063566357  0.46487554965497
 6 -3.91144494239424 -3.85659975347535  1.81871839753975
 8 -4.18138321182118 -3.47021495539554  2.93581164926493
 8 -3.17193588118812 -4.91637661056106  1.44996542444244
 6 -2.77763246704670 -5.70436988308831  2.68728086768677
 6  2.73379554815482 -1.23942784038404 -1.09782380818082
 6  3.98323156995700 -0.66603710611061 -0.64729682978298
 6  4.95528778537854  0.10764181908191 -1.19728368496850
 6  4.67319651535153  0.83806453815382 -2.43654077087709
 6  6.27324907010701  0.33966170537054 -0.45228414261426
 6  7.51785302570257 -0.36754293719372 -1.04292115901590
 6  8.81084268536854 -0.03106709180918 -0.33009135663566
 6  10.10274119981998 -0.56034036063606 -0.87157451225123
 6  10.15690172877288 -2.12099590249025 -1.16878616351635
 6  11.33227707790779 -0.20370468516852 -0.05694625032503
 6  12.71056273047305 -0.45449076627663 -0.71236575967597
 6  13.92712130153015  0.00345311911191  0.15193724922492
 6  15.32284119591959 -0.11049193069307 -0.35003856175618
 6  15.67773734553455 -1.64300316571657 -0.43617238553855
 6  16.31163190749075  0.80686520382038  0.39020804310431
 6  17.74877976677668  0.59348226592659 -0.10533443484348
 6  18.66449737403740  1.63407773667367  0.52520333653365
 6  20.10441234283428  1.61623942854285  0.20987271477148
 6  20.37132783168317  2.16600317641764 -1.24363244104410
 6  20.92347486878688  2.48676001480148  1.24284607280728
 1 -3.82376003630363  3.28352958495850  1.87108198909891
 1 -10.11031888498850  4.07955519761976 -0.53684500720072
 1 -10.71335559195920 -2.35067222272227 -0.99471894499450
 1 -3.16888921592159 -1.36236547174717  2.21299217491749
 1 -2.28004931943194  1.49873009620962  1.75245815801580
 1 -1.97248750675068  0.60296666506651  3.70100920492049
 1 -3.57779327122712  1.65000004970497  3.98404860006001
 1 -3.56228582548255 -0.09939475497550  3.94934011021102
 1 -2.28136364476448 -1.80615534863486 -0.27619206640664
 1 -1.98701204060406 -0.09803361236124 -0.61450814501450
 1 -0.11131695149515  0.02558641224122  1.13484384568457
 1 -0.30634097339734 -1.63225518411841  1.42327983638364
 1 -4.17260207670767  5.69565393349335  0.54043684348435
 1 -5.53512871927193  6.49479439413941  1.31089038363836
 1 -4.95959404620462  5.61301934593459  2.39692382638264
 1 -7.61522653205320  7.17113698819882  0.88745029892989
 1 -9.40973632553255  6.06005616611661 -1.52152373847385
 1 -9.36367111371137  7.51157988548855 -0.68352857575758
 1 -12.49010337233723  3.57624681188119 -0.27005481858186
 1 -11.91902575087509  3.95526948434843 -1.78572788958896
 1 -13.25646666946695  2.72583041874187 -1.47000135553555
 1 -12.62610498369837 -1.21945087178718 -1.27454220532053
 1 -13.47888491299130  0.28796295099510 -1.39102146094609
 1 -12.67243287318732  0.43412022512251 -3.90237758205821
 1 -11.79805477347735 -0.99740731433143 -3.72068102020202
 1 -13.59718647214721 -1.09902899769977 -3.57578512081208
 1 -10.20220676947695 -4.30714003380338 -0.65767806980698
 1 -9.28169214811481 -4.69928787478748 -2.18397529572957
 1 -8.72682785748575 -5.57408567556756 -0.77173512901290
 1 -3.75657750915092 -3.49750604080408 -0.36122747134713
 1 -2.20220061306131 -6.71528662436244  2.25748908300830
 1 -2.17916636303630 -5.29928341224122  3.52236667926793
 1 -3.53096611301130 -6.05921101270127  3.43084996059606
 1  2.70963487098710 -2.38801644514451 -1.16183735073507
 1  2.30237513201320 -0.89988756955696 -2.11106887408741
 1  4.23528630033003 -1.26596891119112  0.39427733073307
 1  5.18734056325633  1.99165167416742 -2.25506022582258
 1  5.17428404560456  0.48021398389839 -3.27716911851185
 1  3.44734485268527  1.17470865766577 -2.78349917501750
 1  6.68783679987999  1.27376350135013 -0.49287947904790
 1  6.40079812451245 -0.01331122072207  0.69967767516752
 1  7.37495428032803 -1.44962168676868 -1.06430719031903
 1  7.58498804130413 -0.18393637303730 -2.11523635263526
 1  8.94087957535753  0.94463330463046 -0.29144899659966
 1  8.81310437323732 -0.59781393289329  0.58661147354735
 1  10.30681334993499 -0.07812525582558 -1.97745232023202
 1  9.54663497969797 -2.51492018521852 -1.92621116891689
 1  11.22353738483848 -2.31820342014201 -1.45634623952395
 1  9.81077609770977 -2.68446013161316 -0.17473574287429
 1  11.35946124352435  0.80628940904090  0.39717830303030
 1  11.39573553705371 -0.97900313681368  0.97705763596360
 1  12.99135384598460 -1.52163373457346 -1.02693590659066
 1  12.66475462766276  0.33870379137914 -1.64863639733973
 1  13.88808996389639  1.01493120392039  0.38965187608761
 1  13.72368659565957 -0.60822725052505  0.98815566146615
 1  15.24490683488349  0.23466467256726 -1.41442345564556
 1  15.08319387228723 -2.31952453425342 -1.15508484168417
 1  16.73299717321732 -1.62352638923892 -0.79330511441144
 1  15.56483176197620 -1.91411654425443  0.75556482788279
 1  15.86510678387839  1.65063163346335  0.27756821582158
 1  16.18191284808481  0.41891251455145  1.42811623422342
 1  18.12385360706071 -0.47214142464246  0.02677280948095
 1  17.82430701630163  0.97183907220722 -1.04540297279728
 1  18.35111980148015  2.62709910581058  0.37819320902090
 1  18.54239649384939  1.61655746524652  1.72443959395940
 1  20.64676100850085  0.56914487548755  0.24338549474948
 1  19.87925528212821  3.20098836893689 -1.40656255865587
 1  21.41259850355036  1.95707377707771 -1.46496960356036
 1  19.83691866486648  1.38344396609661 -2.02323450495049
 1  21.07494273077308  1.76194766276628  2.15296633323332
 1  21.91502435963596  2.76653668106811  0.75004916201620
 1  20.42943257265727  3.45184838443844  1.20215895379538
 1 -7.00778261136114  1.77900677387739  0.03031487758776
 1 -7.59381092949295 -0.19977015301530  0.42114198659866

