%nproc=3
%Mem=2GB
# td=(NStates=1) B3LYP/SVP 

TD

0 1
 6 -5.03307100520052 -1.84859110121012  0.51230610651065
 6 -4.82964328332833  2.77846429812981  1.53987037293729
 6 -9.33369327902790  3.31803260246025 -0.29637810571057
 6 -9.67471552605260 -1.48094889828983 -1.05191774517452
 7 -5.20854001630163  0.44801642454245  0.90708914591459
 6 -4.44186280238024 -0.63845056605661  0.86130957435744
 6 -3.10797048354836 -0.54243067776778  1.37874287008701
 6 -3.05848081348135  0.92340123242324  1.89276838263826
 6 -4.47634682778278  1.42522234013401  1.44581817881788
 6 -2.80990955945595  1.06312382468247  3.39030689328933
 6 -2.09577164786479 -0.80227018871887  0.22984092969297
 6 -0.52333554575458 -0.56927514411441  0.54680713341334
 6  0.34823848524852 -0.93266013891389 -0.70071162876288
 8  0.02832460006001 -1.34338670527053 -1.72953656515652
 8  1.63126332343234 -0.68902567566757 -0.29892233493349
 7 -7.05859045364536  2.69529680148015  0.56820632983298
 6 -6.06249782518252  3.35495991429143  1.08738959585959
 6 -6.30740392609261  4.73357979747975  0.97691418421842
 6 -7.62240133693369  4.91351018651865  0.57920444784478
 6 -8.13218416431643  3.58959745344534  0.17821797719772
 6 -5.30655117161716  5.86929244434443  1.39080034603460
 6 -8.25867315001500  6.18210222182218  0.41758025932593
 6 -8.88980687888789  6.53168289018902 -0.68099057785779
 7 -9.23969216981698  0.89792702570257 -0.56901937033703
 6 -9.93337720062006  1.99772227092709 -0.55499476867687
 6 -11.31326519301930  1.79568312931293 -0.96317015091509
 6 -11.34032798329833  0.44895223532353 -1.20180513521352
 6 -10.04907713341334 -0.11207115881588 -0.91954519701970
 6 -12.32623112401240  2.91985048664866 -1.08398148844885
 6 -12.64060179967997 -0.31340381988199 -1.58158911861186
 6 -12.70572070277028 -0.56555982038204 -3.16824499579958
 7 -7.32866182378238 -1.28155984118412 -0.25874440294029
 6 -8.45804739223922 -2.00987971477148 -0.69019238163816
 6 -8.09207164616462 -3.37923480568057 -0.66408897619762
 6 -6.70678558765877 -3.34926175447545 -0.30672829672967
 6 -6.34619572297230 -2.02726554515452  0.05173024922492
 6 -8.85139789738974 -4.57010776027603 -1.07908690309031
 6 -5.62471941714171 -4.32523755885589  0.13903484908491
 8 -5.49214870507051 -5.49063859395940  0.09203193729373
 6 -4.44708233683368 -3.35818658025803  0.48786784888489
 6 -3.88608240614061 -3.79632372587259  1.86376290199020
 8 -4.14709978347835 -3.24762269616962  2.92291035913591
 8 -3.10428911651165 -4.85200017291729  1.76687711561156
 6 -2.47776248004801 -5.42002144824482  2.90656279587959
 6  2.66347851645165 -0.93264716231623 -1.29711373717372
 6  3.90757400420042 -0.57762826522652 -0.68085018511851
 6  4.96336859345935  0.10628168306831 -1.20769472607261
 6  4.84831402710271  0.94257498919892 -2.49268638543854
 6  6.25129687488749  0.33046078527853 -0.46125503970397
 6  7.47097833823382 -0.42166834973497 -1.02615948284828
 6  8.71794339543954 -0.29916390149015 -0.11693004050405
 6  10.00157108280828 -0.66085041164116 -0.92483983878388
 6  10.04063010161016 -2.15993979687969 -1.39481876677668
 6  11.27434128432843 -0.29575389008901 -0.13768432413241
 6  12.58053972817282 -0.56392170937094 -0.76395091819182
 6  13.77311590099010 -0.06697392359236  0.10409246474647
 6  15.24347325912591 -0.31529241074107 -0.48482204010401
 6  15.49552912471247 -1.83088195359536 -0.63491225952595
 6  16.17403814811481  0.25505002230223  0.44250327262726
 6  17.63568845764577  0.50467338503850 -0.10556445784578
 6  18.48903982828283  1.41917624652465  0.76823763996400
 6  20.00221212281228  1.65199300390039  0.32071379887989
 6  20.15185588448845  2.40923749984999 -0.96090416821682
 6  20.87069959125913  2.44140547934793  1.42681446964696
 1 -4.08998665896590  3.31361259325933  1.98125300620062
 1 -10.04523237633763  4.03844108620862 -0.55551687438744
 1 -10.32549680608061 -2.05553270877088 -1.52857233033303
 1 -3.04618694569457 -1.43477271247125  2.10230110581058
 1 -2.16253756825683  1.58110833403340  1.52962587478748
 1 -1.62117237523752  0.84265063346335  3.55090419441944
 1 -2.83747923982398  2.17167221692169  3.58930912611261
 1 -3.64430402730273  0.40562574707471  3.90508568476848
 1 -2.19207471587159 -1.93871860496050 -0.19046349354936
 1 -2.32047538693869 -0.11854566356636 -0.67688438263826
 1 -0.20358617841784  0.35793964756476  1.16385674697470
 1 -0.33202354165417 -1.47661962056206  1.39080658905891
 1 -4.40683550005001  5.89244361246125  0.65552835263526
 1 -5.69078428482848  6.88137305200520  1.47647694229423
 1 -4.76147423422342  5.51596964096410  2.25398953295330
 1 -8.15306031543154  6.78389826432643  1.27436899079908
 1 -8.97547289918992  6.27513767426743 -1.74285587168717
 1 -9.48653339993999  7.50290901840184 -0.55534575747575
 1 -12.37378174017402  3.39675886308631 -0.20227804090409
 1 -12.09934378267827  3.72415637303730 -1.87540685748575
 1 -13.21296231903190  2.40367820352035 -1.34786914231423
 1 -12.56847922112211 -1.11150007670767 -0.98441319241924
 1 -13.52042906740674  0.24475863056306 -1.28660101890189
 1 -12.68589421932193  0.39988680178018 -3.63817116141614
 1 -11.93214818281828 -1.24024159775978 -3.40743969606961
 1 -13.79759651315132 -0.90907000180018 -3.42580012231223
 1 -9.87602415121512 -4.73144246404641 -0.74243654565457
 1 -8.95479945884588 -4.74727267326733 -2.25934283248325
 1 -8.28113328802880 -5.65695396239624 -0.50636859235924
 1 -3.43267511891189 -3.48550484068407  0.00050870227023
 1 -1.82055244824482 -6.05541063676368  2.61865519961996
 1 -2.20405885228523 -4.53506699059906  3.70644508710871
 1 -3.17964098049805 -5.92189728132813  3.45456233183318
 1  2.64385829332933 -2.06714435793579 -1.66230739773977
 1  2.16308120262026 -0.38886646744674 -2.10254802200220
 1  4.08623139483948 -0.89418173247325  0.42325022802280
 1  4.97385921512151  1.89315182418242 -2.32489720952095
 1  5.41981859905991  0.62634859735974 -3.26698810041004
 1  3.77963808200820  0.77239842664266 -2.86497732283228
 1  6.44909292549255  1.44489061406141 -0.16108629972997
 1  6.18910695539554 -0.08785867546755  0.59954766216622
 1  7.17788457335734 -1.36400312491249 -1.21792255185519
 1  7.74341388388839  0.05253727432743 -1.92973780278028
 1  8.65611109850985  0.87389623092309  0.02918306660666
 1  8.71919498229823 -0.90931508300830  0.83557637003700
 1  9.92796546514651 -0.09744718801880 -2.06406098109811
 1  9.38739905610561 -2.64103279647965 -2.10176872467247
 1  10.91284631573157 -2.43516511631163 -1.99362996789679
 1  9.91848686878688 -2.73288497409741 -0.40133840314031
 1  11.21105640304030  0.85109388948895  0.07574615981598
 1  11.16836279977998 -0.68310354685469  0.88855878607861
 1  12.73292800340034 -1.47197876907691 -1.32648586158616
 1  12.54748290049005  0.11617153815382 -1.70651218491849
 1  13.63517467236724  0.92159186998700  0.51956486738674
 1  14.01746597359736 -0.56017244504450  1.08547539343934
 1  15.35932827702770  0.21932313841384 -1.46152816611661
 1  14.73832938583858 -2.29044162596260 -1.22702203540354
 1  16.55313918741874 -1.91849588618862 -0.98924470837084
 1  15.70604588338834 -2.36880201280128  0.43820309170917
 1  15.77168744194420  1.23624019431943  0.71108156715672
 1  16.20788544534453 -0.09847922462246  1.46325974857486
 1  18.18362958465847 -0.58498270877088 -0.18055792359236
 1  17.47090167576757  0.88563045134513 -1.24296272877288
 1  17.93950864036404  2.36512290819082  0.83229861956196
 1  18.49657191139114  1.07782359185919  1.79388653865387
 1  20.29866619901990  0.86445440644064  0.16442759895990
 1  19.68213557015702  3.21588985908591 -1.13850575297530
 1  21.14998224192419  2.66205427512751 -1.34867797439744
 1  19.82880785378538  1.78866448814882 -1.99322150365037
 1  20.81551678817882  1.76310777877788  2.40718175477548
 1  21.93494635183518  2.40684071147115  1.23443760086009
 1  20.45477510691069  3.43487668726873  1.47121585948595
 1 -7.11253308640864  1.68551742494249  0.19952179827983
 1 -7.47321887028703 -0.08241841784178 -0.40976110371037

