%nproc=3
%Mem=2GB
# td=(NStates=1) B3LYP/SVP 

TD

0 1
 6 -5.06049374747475 -1.97192343444344  0.43100797669767
 6 -4.78558887788779  2.79353580528053  1.33854023992399
 6 -9.44452436213621  3.22559335853585 -0.27593606150615
 6 -9.82270032453245 -1.56748755215522 -0.75892844624462
 7 -5.19744890719072  0.40181180408041  0.85595403240324
 6 -4.45580419651965 -0.74692141314131  0.87108055145515
 6 -3.09909959645965 -0.55570200490049  1.24401939773977
 6 -3.01240620602060  0.92597148944894  1.87189629542954
 6 -4.37187638073807  1.43687350525053  1.33501709870987
 6 -2.89848841734173  0.92288980128013  3.35046290889089
 6 -2.00531260196020 -0.80516047774777  0.08256620222022
 6 -0.52923613581358 -0.65556377297730  0.50021247394739
 6  0.41054471587159 -0.82439931283128 -0.70031158875888
 8  0.18542030963096 -1.38829119571957 -1.76733034453445
 8  1.64838503560356 -0.44160093319332 -0.33210565326533
 7 -7.11028562316232  2.73775104690469  0.52787229642964
 6 -6.00863243864386  3.45443986228623  0.96954781168117
 6 -6.35763894959496  4.82797923742374  0.96060255305531
 6 -7.63336243304330  4.97982681818182  0.59121564896490
 6 -8.18140908680868  3.60847934163416  0.21124127952795
 6 -5.51110162666267  5.79887540264026  1.48087935393539
 6 -8.33338062076207  6.23547755935594  0.35122362366237
 6 -9.17156505470547  6.54625434733473 -0.61661414021402
 7 -9.28459666026603  0.76518375137514 -0.30805327372737
 6 -9.94964882778278  1.93569606830683 -0.44364363356336
 6 -11.24663853035304  1.70890445144514 -1.02801663556356
 6 -11.41479543004300  0.40185752585259 -1.16958191289129
 6 -10.18066029172917 -0.15682563426343 -0.79393263576358
 6 -12.15179368026803  2.86956545814581 -1.11919500980098
 6 -12.53641138063806 -0.33535601510151 -1.75852681238124
 6 -12.52980311101110 -0.41332459685969 -3.28506667796780
 7 -7.53556251385139 -1.31880356555656 -0.08241677017702
 6 -8.56717830533053 -2.08750747754776 -0.48160152255225
 6 -8.14902734173417 -3.52263914611461 -0.56289885718572
 6 -6.76150105920592 -3.42387921622162 -0.21577920182018
 6 -6.39733083648365 -2.05485830443044  0.06015109130913
 6 -8.91067382498250 -4.72944369386939 -0.89012800720072
 6 -5.63696064126413 -4.28185322042204  0.04776572217222
 8 -5.56910640084008 -5.52398192829283 -0.13129039493949
 6 -4.47371500010001 -3.34085484708471  0.44231329342934
 6 -3.92567636553655 -3.74339843334333  1.80708723442344
 8 -4.03217829132913 -3.24698263216322  2.83625169326933
 8 -2.97349603720372 -4.76603157605761  1.54978540644064
 6 -2.42276698049805 -5.47476692279228  2.80683282288229
 6  2.68197036563656 -0.72120601820182 -1.20828485428543
 6  3.96956020282028 -0.51401190359036 -0.62940504060406
 6  4.89509176577658  0.35201625652565 -1.10344430103010
 6  4.82469166486649  1.16946767846785 -2.38369548634863
 6  6.31789353455346  0.41542928212821 -0.38438735293529
 6  7.49510075047505 -0.28894507740774 -1.11839870677068
 6  8.81004260536054  0.06459247414741 -0.40023837133713
 6  10.01474239993999 -0.63383771037104 -0.88965632043204
 6  9.96687272587259 -2.20276407930793 -0.86780606550655
 6  11.23814766496650 -0.18948326302630 -0.12549310501050
 6  12.66201787598760 -0.78483380058006 -0.66481100420042
 6  13.78602719211921 -0.07761498769877  0.08895095059506
 6  15.21859077087709 -0.32218309980998 -0.34725828372837
 6  15.57548712051205 -1.83181204660466 -0.32113088138814
 6  16.24730547484749  0.46655117241724  0.36994601690169
 6  17.71759664846485  0.55068798649865 -0.11894579597960
 6  18.64224514881488  1.34436876577658  0.82604342054205
 6  20.10658255985598  1.44552235683568  0.21623335083508
 6  20.19548024692469  2.03967054315432 -1.21733981178118
 6  21.02192471377138  2.22335367416742  1.21553334153415
 1 -3.73127078737874  3.36361759375938  1.80430531143114
 1 -10.04740259335934  4.07216445854585 -0.49972129482948
 1 -10.71284554095410 -2.46596375187519 -0.87416688978898
 1 -2.77695002200220 -1.22253148834883  2.07874875057506
 1 -2.17655897039704  1.53475369856986  1.32545545774578
 1 -1.93540379837984  0.60766713511351  3.73298240224022
 1 -3.11722721462146  1.84670972067207  3.76132632783278
 1 -3.82825242214221  0.51138632313231  3.70879605580558
 1 -2.19910541894189 -1.63187792089209 -0.66629107630763
 1 -2.20905424482448  0.07955414641464 -0.64835152935294
 1 -0.10101592139214  0.30988484208421  1.00013037433743
 1 -0.40176051535154 -1.61212317091709  1.18133564196420
 1 -4.44769958645865  6.18547291539154  0.71753455325533
 1 -6.23109831623162  6.60409532423242  1.45235453005301
 1 -4.89728781558156  5.46738478247825  2.36900103410341
 1 -8.17121213061306  6.93282315681568  1.19187074097410
 1 -9.34498985088509  5.80568072857286 -1.47798938503850
 1 -9.41343609020902  7.61757048454846 -0.80827105000500
 1 -12.29993435543554  3.37206639383938 -0.20229804290429
 1 -12.01230507880788  3.78856281368137 -1.73460277707771
 1 -13.20839186198620  2.56435427112711 -1.61469582498250
 1 -12.47076945014501 -1.47635656235624 -1.41676642774277
 1 -13.44145116961696  0.20028418311831 -1.26879923872387
 1 -12.60632626252625  0.56771358445845 -3.74065140944094
 1 -11.59127409540954 -1.03032060566057 -3.81224017611761
 1 -13.34090084358436 -0.98081717651765 -3.65939348164817
 1 -9.68161471027103 -4.98915823562356 -0.23041534353435
 1 -9.47254123302330 -4.55604355035504 -1.89021591979198
 1 -8.15385055975598 -5.34137240424042 -1.04439239473947
 1 -3.70303215461546 -3.60524681488149 -0.33625497409741
 1 -1.87172756575658 -6.24184928062806  2.54463779787979
 1 -2.06435488188819 -4.63813729762976  3.25569001160116
 1 -3.34638765516552 -5.84782987458746  3.28946582218222
 1  2.73912782028203 -1.84442208570857 -1.54864603160316
 1  2.57583247774778 -0.38556613741374 -2.32039980718072
 1  4.05000777247725 -1.00008232253225  0.21286918991899
 1  5.11474330353035  2.27745025402540 -2.26919163896390
 1  5.47200381758176  0.90356631913191 -3.42039344094409
 1  3.67597771597160  1.25799698649865 -2.74801562666267
 1  6.61702971917192  1.49678580358036 -0.24535472657266
 1  6.15513355805581 -0.00298018761876  0.63615132253225
 1  7.21211799669967 -1.36829355395540 -1.16473723332333
 1  7.82553209570957  0.32852487308731 -2.03324815381538
 1  8.70209569696970  1.06479532083208 -0.47000685238524
 1  8.51497456025603 -0.15035918741874  0.63344615701570
 1  10.02143481208121 -0.41216866016602 -1.91516609160916
 1  9.19168948514852 -2.62610130333033 -1.79682823062306
 1  11.05755078617862 -2.45271687148715 -1.07372797769777
 1  9.61736675677568 -2.44057574317432  0.28712044274427
 1  11.17475277267727  0.80904968506851 -0.17979939473947
 1  11.17396335983598 -0.36882211871187  1.05804573477348
 1  12.64006871747175 -1.85551712291229 -0.75198841184118
 1  12.67773592579258 -0.48371845084508 -1.62655418911891
 1  13.47451860676068  1.03492320312031  0.35235814671467
 1  13.63885811281128 -0.22288871667167  1.28169501540154
 1  15.25242758695870 -0.03776257015702 -1.44221623492349
 1  15.02992854575457 -2.53400598239824 -1.05701503470347
 1  16.62132600610061 -2.07339137573757 -0.60977676157616
 1  15.66512179097910 -2.04958009060906  0.80307957935794
 1  15.95799607280728  1.50037660796080  0.55126558555856
 1  16.19142379917992  0.09555017831783  1.44053747634763
 1  18.32623384508451 -0.43438764926493 -0.12901276907691
 1  17.71969655525552  0.86518840714071 -1.17497593009301
 1  18.11807649714972  2.43157955385539  0.98219360906091
 1  18.54677693189319  0.82799860936094  1.81901905190519
 1  20.43628996139614  0.38102606360636  0.11157231343134
 1  19.33625098169817  3.02085035513551 -1.24994689708971
 1  21.22869011271127  2.17631570127013 -1.60804391099110
 1  19.65430040304030  1.18381400310031 -1.98504068556856
 1  20.92292752925293  1.54917638563856  2.30647168376838
 1  22.05952881008101  2.02766279367937  0.65491964906491
 1  20.73967359675968  3.25904910451045  1.16619535743574
 1 -7.36874870797080  1.94426329952995  0.53118496459646
 1 -7.50795234363436 -0.30948112411241  0.07488736113611

