%nproc=3
%Mem=2GB
# td=(NStates=1) B3LYP/SVP 

TD

0 1
 6 -5.06019371747175 -1.88353459555956  0.44649952585259
 6 -4.73745406440644  2.79674612631263  1.33901028692869
 6 -9.32824273397340  3.28155895509551 -0.27667613551355
 6 -9.87696575107511 -1.50560136353635 -0.77969052245225
 7 -5.16436559885989  0.46618824172417  0.70819925692569
 6 -4.46929554565457 -0.65870259125913  0.71451489488949
 6 -3.00139982648265 -0.43781021572157  1.14303929972997
 6 -3.03919888528853  0.99781867416742  1.72197130293029
 6 -4.43138233133313  1.48043786168617  1.21122471947195
 6 -2.76387495599560  1.03905141744174  3.27139500210021
 6 -1.98140021072107 -0.76319628132813  0.05799374497450
 6 -0.52785599779978 -0.65332354895490  0.54193664636464
 6  0.34666832823282 -0.96024289718972 -0.71406296389639
 8  0.07400916851685 -1.45631799839984 -1.73740735223522
 8  1.60899109620962 -0.56700347344734 -0.29855229792979
 7 -7.03655825042504  2.81091836363636  0.45221473067307
 6 -5.96050762616262  3.45429984828483  1.02394325122512
 6 -6.37217040274027  4.82019845934594  1.08106459925993
 6 -7.60460955775578  5.02679151465146  0.65217174457446
 6 -8.13201414731473  3.64885337903790  0.23279343474347
 6 -5.42851336783678  5.86312182728273  1.53945521152115
 6 -8.34891217391739  6.29949396099610  0.49782828412841
 6 -9.06184408260826  6.70187990989099 -0.50859333813381
 7 -9.30269847044704  0.86356358935894 -0.38178064646465
 6 -9.88585244814482  2.03488598729873 -0.50706997619762
 6 -11.26559042554256  1.84824838583858 -0.97936177007701
 6 -11.39746369686969  0.54633197329733 -1.16376133083308
 6 -10.13296552225222 -0.20455040674067 -0.75681892439244
 6 -12.27115561646165  2.96616511811181 -1.16866995729573
 6 -12.63805154465447 -0.24443692319232 -1.61560251995200
 6 -12.63847397809781 -0.56034929932993 -3.12065023632363
 7 -7.50449940754075 -1.26212789798980 -0.22535106360636
 6 -8.63387497499750 -2.08433716051605 -0.57162052445245
 6 -8.19644208320832 -3.43657053925393 -0.59674224152415
 6 -6.91388629772977 -3.41790861916192 -0.17807543144314
 6 -6.42570367376738 -2.07675049364936 -0.04715963976398
 6 -8.95057781538154 -4.71123187268727 -1.04279327372737
 6 -5.70791773697370 -4.27543257835784  0.04338528412841
 8 -5.62280177037704 -5.49021855195519  0.06590932503250
 6 -4.50940856945695 -3.31643240484048  0.45914497659766
 6 -3.78970276817682 -3.78381247474747  1.73727025272527
 8 -3.90777585108511 -3.27561549544955  2.88987705580558
 8 -3.10621930953095 -4.86909188208821  1.55902633053305
 6 -2.45231993579358 -5.42860230633063  2.64792693229323
 6  2.66014818341834 -0.99323322092209 -1.24797882368237
 6  4.03924717151715 -0.75885638803880 -0.64843694379438
 6  4.98822107870787  0.06066712161216 -1.14912886948695
 6  5.05602479817982  0.65578631033103 -2.51776889368937
 6  6.27389913511351  0.15570330953095 -0.38707762196220
 6  7.50662190259026 -0.56284246714671 -0.88602546944694
 6  8.76032763386339 -0.42702668776878 -0.10695904340434
 6  10.11446237193719 -0.90831515811581 -0.64698205300530
 6  10.08371441004100 -2.51444524742474 -0.79439872477248
 6  11.23733758395840 -0.31777609230923  0.23721316561656
 6  12.57359903410341 -0.76012132933293 -0.55395991909191
 6  13.86256484588459 -0.15494272047205  0.26367842334233
 6  15.18255716751675 -0.16423730523052 -0.42708626652665
 6  15.56484605640564 -1.72448131353135 -0.83788255655566
 6  16.34348509280928  0.53715823312331  0.37162618491849
 6  17.59689457825783  0.85645856355636 -0.37266116751675
 6  18.50924184848485  1.68760308920892  0.62577339353935
 6  20.06309821142114  1.78626643124312  0.21937366486649
 6  20.19772047094709  2.47069364546455 -1.16584466226623
 6  20.90232275357536  2.33999533833383  1.42770455865587
 1 -3.97180484078408  3.50717194919492  1.76015089598960
 1 -9.91455930903090  4.35916315841584 -0.44049537223722
 1 -10.63507776417642 -2.07195435093509 -0.93014248734873
 1 -2.62025435243524 -1.06483571877188  1.91044191989199
 1 -2.35901721622162  1.59968019121912  1.02773568576858
 1 -1.73322358035804  0.17614398279828  3.41585068906891
 1 -2.63193868576858  2.04607965766577  3.56087628282828
 1 -3.85504510141014  0.63246843134313  3.75985116131613
 1 -2.13715922432243 -1.61388612171217 -0.44991943914391
 1 -2.24352769216922 -0.01589539853985 -0.74301099529953
 1 -0.21708752855285  0.36939079267927  0.99086944824482
 1 -0.28009834913491 -1.35694765336534  1.18555606400640
 1 -4.42524734123412  5.78260262836284  0.93584638443844
 1 -5.98551375777578  6.79472438713871  1.58110740534053
 1 -5.26577466426643  5.86221426542654  2.62685681968197
 1 -8.09905491489149  6.79821969646965  1.53812536643664
 1 -9.26569192109211  6.01809196969697 -1.50933251935194
 1 -9.60797554415442  7.71587031453145 -0.66629685258526
 1 -12.22970733273328  3.56212539973997 -0.30006781988199
 1 -12.00837468576858  3.69885384278428 -2.02101141794179
 1 -13.42361338413841  2.52232006770677 -1.22610696609661
 1 -12.82637501070107 -1.06653558025803 -0.96245099619962
 1 -13.40871789628963  0.47205135983598 -1.28466082488249
 1 -12.69463509340934  0.47345415851585 -3.76763410771077
 1 -11.79739470747075 -1.16145371897190 -3.26967591969197
 1 -13.68628538203820 -1.22551164596460 -3.17496503880388
 1 -9.95881243004301 -5.02005132493249 -0.45114741674167
 1 -9.07931191009101 -4.46573451945194 -2.16324322252225
 1 -8.37510268496850 -5.52921118811881 -0.86098405390539
 1 -3.87085893729373 -3.45243153335334 -0.22979432803280
 1 -2.19360975397540 -6.41842693839384  2.08595192929293
 1 -1.43015146154615 -4.98707219111911  3.10211465406541
 1 -2.94909792619262 -5.62205729732973  3.72483935953595
 1  2.51266517401740 -2.16536417991799 -1.46083725072507
 1  2.48123301780178 -0.46152373317332 -2.20230799799980
 1  4.35151792349235 -1.22247456175617  0.30186808980898
 1  5.16888871807181  1.71975448444844 -2.50316503630363
 1  5.80154677187719  0.27222318481848 -3.38940034163416
 1  4.09454957315732  0.54264545134513 -2.89321014611461
 1  6.52832084828483  1.14954107910791 -0.25925611671167
 1  6.04091213591359 -0.37411730133013  0.54186189358936
 1  7.29694647954795 -1.59385611021102 -1.00448120772077
 1  7.77693723622362 -0.44768274767477 -2.05349017801780
 1  8.67550303770377  0.60494933623362  0.08855900420042
 1  8.79351241404140 -0.94038819031903  0.84926773917392
 1  10.23507617621762 -0.47167461076108 -1.54660923592359
 1  9.52759307550755 -2.83430212341234 -1.80011855965597
 1  11.19841487258726 -2.74154575437544 -1.17849845474547
 1  9.92633765386539 -3.04887657325733 -0.03065133443344
 1  10.80284558195820  0.98651743184318  0.11748033323332
 1  11.03342930643064 -0.52351758825883  1.41145107530753
 1  12.82571728232823 -1.83874544574457 -0.58504171717172
 1  12.74007215941594 -0.18327840684068 -1.49519105280528
 1  13.56232738763876  0.70739044984498  0.33785669656966
 1  13.89344357135714 -0.63663009080908  1.29811665756576
 1  15.11548389258926  0.48631983808381 -1.44779679297930
 1  14.82521807470747 -1.82705528732873 -1.58091742494249
 1  16.51889576307631 -1.55867990459046 -1.37438322222222
 1  15.48310358915892 -2.23386851945195  0.18501777317732
 1  15.79676995019502  1.61302787308731  0.43083354235424
 1  16.61248590539054 -0.04768414511451  1.22085550815082
 1  18.02456367806781 -0.12704691519152 -0.79614948274828
 1  17.33386797239724  1.23382527082708 -1.33554198669867
 1  18.21040573007301  2.70833722962296  0.92567795749575
 1  18.48335058925893  1.26644245374537  1.72553970397040
 1  20.35939227162716  0.66802476347635 -0.04057290109011
 1  19.77265462206221  3.55060333043304 -0.95780768316832
 1  21.23105034873488  2.52507057675768 -1.48985209180918
 1  19.40166513951395  2.15082070377038 -1.89147132863286
 1  21.06453168966897  1.60623209120912  2.26473751035103
 1  21.80683354055406  2.62772279967997  1.06337049414941
 1  20.41695132453246  3.38919211881188  1.82896163406341
 1 -7.08144997809781  1.69837871107111  0.07746959305931
 1 -7.74347589598960 -0.27374755075508 -0.06771689928993

