%nproc=3
%Mem=2GB
# td=(NStates=1) B3LYP/SVP 

TD

0 1
 6 -5.17200489858986 -1.93635987808781  0.65749062496250
 6 -4.64003432243224  2.72882933463346  1.50323670957096
 6 -9.21165107480748  3.40681148034803 -0.33739220712071
 6 -9.80078813331333 -1.46817762116212 -0.93564611801180
 7 -5.20870003230323  0.48790041294129  0.88227666466647
 6 -4.51152976907691 -0.73579030003000  0.82866631003100
 6 -3.02011169766977 -0.65374180888089  1.22727772357236
 6 -3.01956692209221  0.76639553185319  1.91990109590959
 6 -4.36603579667967  1.31917173507351  1.26022961996200
 6 -2.97027559605961  0.85186269856986  3.50145800840084
 6 -2.13429550025002 -0.69244920662066  0.03473141874187
 6 -0.58855206740674 -0.81475969256926  0.38915136783678
 6  0.31920558195820 -0.98378525142514 -0.67864942254225
 8  0.02264403200320 -1.20819318591859 -1.93025663716372
 8  1.69895009210921 -0.91301807490749 -0.33483592629263
 7 -6.93439803440344  2.72262953475347  0.52586209540954
 6 -5.83351492689269  3.39247366566657  1.07760861776178
 6 -6.04274746044604  4.80523696319632  1.12920941374137
 6 -7.38226732353235  4.87796663216322  0.53990051745175
 6 -7.86759770567057  3.54132262596260  0.14087424282428
 6 -5.17747826432643  5.87243275837584  1.54279554555456
 6 -7.99146642934293  6.16940095169517  0.21846034733473
 6 -8.85396329452945  6.49639936183618 -0.73255573437344
 7 -9.08192639323932  0.92263949694969 -0.60612308070807
 6 -9.74388825172517  2.11195369406941 -0.63337260646065
 6 -11.12938680518052  1.85712927392739 -1.07880171407141
 6 -11.33762771327133  0.45759309940994 -1.13684863956396
 6 -10.06979920562056 -0.06650660236024 -0.85409865236524
 6 -12.19477797869787  2.95313381498150 -1.21447453775378
 6 -12.58166590609061 -0.32551503100310 -1.41385234493449
 6 -12.85220535123512 -0.39630289468947 -2.90391856315632
 7 -7.55478443604360 -1.37621930713071 -0.22226075457546
 6 -8.62275386288629 -2.02226095289529 -0.60621398379838
 6 -8.18425086408641 -3.44759164136414 -0.54566713401340
 6 -6.85563047214722 -3.48564539283928 -0.18837646154615
 6 -6.48383948734874 -2.10110292889289  0.10823589978998
 6 -9.07421017861786 -4.65539628912891 -0.93127212161216
 6 -5.69479642484248 -4.40337537263726  0.13043398899890
 8 -5.66706619681968 -5.60974050415042  0.10445317941794
 6 -4.55577320592059 -3.38806956855686  0.53797285938594
 6 -4.04956875477548 -3.82857695119512  1.89820634633463
 8 -4.25505057855786 -3.41840977487749  2.95570363846385
 8 -3.21856054365437 -4.81910688358836  1.70017044494449
 6 -2.61410611441144 -5.49790923702370  2.91830396999700
 6  2.60793296189619 -0.98926282388239 -1.41189521532153
 6  3.84807805460546 -0.63242374477448 -0.80701280138014
 6  4.88239049564956  0.13866492139214 -1.29361331793179
 6  4.85719491519152  0.80674140584058 -2.60936805360536
 6  6.24226597179718  0.41707944714471 -0.54046296049605
 6  7.47800904130413 -0.19012519541954 -1.26081294819482
 6  8.72822442354235  0.03307932283228 -0.34614296179618
 6  10.06928785448545 -0.51758608520852 -1.03858121292129
 6  9.97659369796980 -2.01193499639964 -1.32575186008601
 6  11.10396424662466 -0.21803611831183 -0.04821537723772
 6  12.62341401560156 -0.45173049024903 -0.69154367746775
 6  13.73713230263026  0.14843761756176  0.26489854535454
 6  15.20053896569657 -0.20893177467747 -0.29193275117512
 6  15.51392096389639 -1.73077194259426 -0.51224999329933
 6  16.22776352065206  0.45249976727673  0.62693171547155
 6  17.67479236803680  0.62784570227023  0.04676077467747
 6  18.72650357465746  1.30888521742174  0.93126394259426
 6  20.09769167076708  1.59590739533953  0.27530925842584
 6  20.04052475137514  2.35217179327933 -1.02813089088909
 6  20.96117863916392  2.39593093189319  1.29183097129713
 1 -3.79016667696770  3.41592282428243  1.83318819971997
 1 -9.67534538763876  4.27413465556556 -0.67647897059706
 1 -10.53507776417642 -2.31405856135613 -1.09694916801680
 1 -2.85626795379538 -1.35610484568457  1.82548342404240
 1 -2.22927424192419  1.50338056125613  1.61734464666467
 1 -1.91053131113111  0.63410977937794  3.86818592259226
 1 -3.35211070297030  1.84905995569557  3.78065826102610
 1 -3.79317891479148  0.19836502100210  3.93532870907091
 1 -2.24659016741674 -1.54180891399140 -0.50791523872387
 1 -2.19129246864687  0.09831602260226 -0.58860555475548
 1 -0.14286010581058  0.15154900850085  0.86389675097510
 1 -0.65563590289029 -1.88813077167717  0.92528003640364
 1 -4.47536235273527  6.03641800990099  0.48669146894689
 1 -5.68328353475347  6.80122503720372  1.60903019761976
 1 -4.44802288908891  5.70341838583858  2.39976411041104
 1 -7.66233124252425  7.02206208070807  0.94773632753275
 1 -9.20017536943694  5.64394455495549 -1.53273485958596
 1 -9.33253800040004  7.46771549904990 -0.99193941684168
 1 -12.22537689968997  3.71306049324932 -0.38078589168917
 1 -11.83213706200620  3.62272623002300 -2.11619093589359
 1 -13.19440046284628  2.73152098779878 -1.57317167256726
 1 -12.63847622082208 -1.41599052575258 -1.10172492359236
 1 -13.47783480798080  0.08345249995000 -0.83559591839184
 1 -13.06997262716272  0.48485529862986 -3.42416976127613
 1 -11.93311827982798 -0.81040861446145 -3.53943289538954
 1 -13.73443019651965 -1.06512560736074 -3.09842738503850
 1 -9.92750929972997 -4.66263558335834 -0.27370967296730
 1 -9.62975695459546 -4.48476642264226 -1.91189808800880
 1 -8.63097827252725 -5.67788605560556 -0.89529748524853
 1 -3.77660951235124 -3.42083837403740 -0.27965931453145
 1 -2.13185357835784 -6.47398249394940  2.62706604070407
 1 -1.92551099749975 -4.86294977887789  3.65361980458046
 1 -3.37879089548955 -5.75196028762876  3.69931680728073
 1  2.66981088858886 -1.94619226272627 -1.97040820782078
 1  2.36997189168917 -0.29591717251725 -2.18349611681168
 1  4.09754252595259 -1.10151246554655  0.21681958495850
 1  5.17787961716172  1.81465397439744 -2.71914663446345
 1  5.63445006220622  0.26868283078308 -3.12988439003900
 1  4.03641375957596  0.72634382118212 -3.37566839193919
 1  6.02290030623062  1.49290541554155 -0.47861805290529
 1  6.12739078377838  0.05260537093709  0.58677638503850
 1  7.28185497039704 -1.11745847044704 -1.34313507310731
 1  7.41588113061306  0.45510753135314 -2.32416724572457
 1  8.93092858025802  1.00816965826583  0.07119726802680
 1  8.52810587338734 -0.72075622712271  0.52439525192519
 1  10.18803147174718  0.24067662436244 -2.05983055805581
 1  8.96768708490849 -2.23281197439744 -2.00772932073207
 1  11.02285731683168 -2.47182878267827 -1.61863246814681
 1  9.62919793989399 -2.72586427202720 -0.49413768306831
 1  11.02644794219422  0.84147292739274  0.20722930813081
 1  11.15102106560656 -0.79832506900690  0.88504843504350
 1  12.66705141574158 -1.55673724492449 -0.92152536553655
 1  12.88596674887489  0.22389231023102 -1.53385491919192
 1  13.53601475637564  1.16736644744474  0.43763667456746
 1  13.54417864486449 -0.42198862666267  1.22759960586059
 1  15.19441178537854  0.35816702280228 -1.42465447874787
 1  14.68633418631863 -2.27026960876088 -1.21928126132613
 1  16.45029890339034 -1.70398443504350 -1.03030881478148
 1  15.50485576437644 -2.36534166676668  0.37848712011201
 1  15.87190746394639  1.49683625392539  0.91289174817482
 1  16.38550320712071 -0.21733110981098  1.69732315491549
 1  18.04820604230423 -0.45536974747475 -0.44190405820582
 1  17.55996058165817  1.24803669196920 -0.93459189168917
 1  18.27564225372537  2.33302969886989  1.20065545524552
 1  18.84642689688969  0.84265007450745  1.95716286628663
 1  20.79190552295229  0.53870183118312  0.23781493769377
 1  19.35050240684069  3.29065733583358 -0.90436233863386
 1  21.05854309800980  2.67679574927493 -1.41083419001900
 1  19.57861283428343  1.83721934363436 -1.92942512401240
 1  21.28368360486049  1.63149461746175  2.23567460406041
 1  21.86899975717572  2.53761378877888  0.73100725782578
 1  20.33390301970197  3.29253245284528  1.55075381328133
 1 -6.85569740284028  1.81755062826283  0.29985183128313
 1 -7.48278982738274 -0.44093426942694 -0.19260938853885

