%nproc=3
%Mem=2GB
# td=(NStates=1) B3LYP/SVP 

TD

0 1
 6 -5.15514321242124 -1.94631087318732  0.54823969986999
 6 -4.66850716971697  2.67762421412141  1.46862324822482
 6 -9.38624853455345  3.25522632183218 -0.12695116301630
 6 -9.90293834833483 -1.38838964236424 -0.85006756015602
 7 -5.08994815711571  0.41923354625463  0.84437287428743
 6 -4.54113272937294 -0.80645736673667  0.82935637903790
 6 -3.02281196769677 -0.66117255195520  1.27635263106311
 6 -2.98380334573457  0.83943283558356  1.72964207000700
 6 -4.30180937403740  1.38394821272127  1.31024462146215
 6 -2.77721629012901  0.93819133143314  3.25225308790879
 6 -2.12998506920692 -0.91074103580358  0.04718266386639
 6 -0.65454866706671 -0.77160537713771  0.49382183488349
 6  0.40842450385038 -1.02612948584858 -0.71234279187919
 8  0.04819658725873 -1.41990435703570 -1.76984059555956
 8  1.60871106820682 -0.77775454855486 -0.25789823252325
 7 -7.03558815341534  2.65683295509551  0.55177468666867
 6 -5.93117469286929  3.31188560686069  0.98075893279328
 6 -6.23089627532753  4.60481692119212  1.02376886968697
 6 -7.45176427322732  4.86758559405941  0.43978050545055
 6 -8.04321526742674  3.59649814351435  0.31510166556656
 6 -5.19891040754075  5.74919043414341  1.30583184918492
 6 -8.04563184588459  6.21262527412741  0.26971547284728
 6 -9.02320021822182  6.54265398729873 -0.70375285408541
 7 -9.25821402200220  0.83402063506351 -0.34634710311031
 6 -9.95201906480648  2.06534903360336 -0.46903617281728
 6 -11.27318118461846  1.86165972697270 -0.97688152205221
 6 -11.46064001450145  0.55229256935694 -1.18155311001100
 6 -10.10672289798980 -0.07567751945195 -0.75619886238624
 6 -12.28864736563656  3.05643414501450 -1.25726881718172
 6 -12.64330206970697 -0.15182766226623 -1.63494445414541
 6 -12.74501463216322 -0.27714097849785 -3.23620179147915
 7 -7.55777473507351 -1.27347903310331 -0.07606613511351
 6 -8.67007859535954 -1.94835356215622 -0.54612797519752
 6 -8.21856429542954 -3.32021890409041 -0.62649521682168
 6 -6.83697860696070 -3.35273210151015 -0.21346897079708
 6 -6.50343144654465 -1.99430224882488  0.10648572477248
 6 -9.01003376097610 -4.61553230273027 -0.92712170657066
 6 -5.77328427362736 -4.19261429652965  0.08512945854585
 8 -5.75788527872787 -5.48503803390339  0.00006274037404
 6 -4.64084171277128 -3.34963572517252  0.52024108620862
 6 -3.95160895879588 -3.79527362086209  1.86329285498550
 8 -4.10201527502750 -3.25304323822382  2.89908797689769
 8 -3.21353004060406 -4.83794876777678  1.66834726262626
 6 -2.84437914171417 -5.68363780988099  2.75932807240724
 6  2.72962513111311 -1.14757865546555 -1.23995802160216
 6  4.03435668246825 -0.74940544294429 -0.54475657575758
 6  4.97891014761476  0.05375643054305 -1.02228618521852
 6  4.82133132883288  0.74400513221322 -2.40313743054305
 6  6.22800454565457  0.21108884808481 -0.41945085928593
 6  7.44010525092509 -0.37193337623762 -1.10754762166217
 6  8.81278287938794 -0.15018900400040 -0.33072141964196
 6  10.08319924562456 -0.65685001160116 -1.09580693549355
 6  10.12625866446645 -2.13765756865687 -1.23331261616162
 6  11.39280313051305 -0.18029234393439 -0.22897345304530
 6  12.74525619981998 -0.55421073827383 -0.75151967506751
 6  13.78546713611361 -0.01516874307431  0.25408746424642
 6  15.29633854565457 -0.18634951645165 -0.33139669756976
 6  15.68886845864586 -1.59519838523852 -0.52629139743974
 6  16.35284602890289  0.64360887818782  0.56441546384638
 6  17.73588847764777  0.82142506020602 -0.13436733813381
 6  18.68409933423342  1.55645997489749  0.76969778597860
 6  20.13755565716572  1.70477828242824  0.30274200170017
 6  20.25903660256026  2.28137471357136 -1.12428050585059
 6  20.98123064436444  2.45755709450945  1.41274306250625
 1 -3.91821948224823  3.43767499949995  1.83216809770977
 1 -10.20267812091209  3.91254849694969 -0.25904722742274
 1 -10.76093034943494 -2.08396555205521 -1.12523199629963
 1 -3.00863319031903 -1.44392362756276  2.06353722942294
 1 -2.00318163266327  1.51601182438244  1.45785869806981
 1 -1.74137439543954  0.33980034843484  3.35372447644764
 1 -2.48477396929693  1.90212526222622  3.52032222742274
 1 -3.75820541744174  0.56843202770277  3.82069724592459
 1 -2.29941544994499 -2.07231196429643 -0.39051349854986
 1 -2.22031537093709 -0.28956276527653 -0.90550724492449
 1 -0.23380920072007  0.34220807440744  0.61898225952595
 1 -0.39029936923692 -1.45703766236624  1.41880938933893
 1 -4.22583740024002  5.55580994909491  0.75942874267427
 1 -5.40686589298930  6.88573348804881  0.88326762136214
 1 -4.81690977777778  5.52784082808281  2.27948208220822
 1 -7.73240825022502  7.09565944044404  0.94068562246225
 1 -9.60750610251025  5.75814597509751 -1.25404699079908
 1 -9.17157190379038  7.59787851535154 -0.67493771667167
 1 -12.28338270027003  4.07881706890689 -0.56463427652765
 1 -12.07344119241924  3.45963992139214 -2.42995231203120
 1 -13.31316233903390  2.64208204390439 -1.14250860626063
 1 -12.80676304950495 -1.16262518921892 -1.07686243734373
 1 -13.55428245274527  0.45341949664967 -1.13565592439244
 1 -12.74949057895789  0.67560437353735 -3.54522186648665
 1 -12.00342531053105 -0.79897747134714 -3.50847980008001
 1 -13.53694044754475 -0.91724081888189 -3.52729027132713
 1 -9.75128167696770 -4.91364068386839 -0.02698500050005
 1 -9.54718869776978 -4.53777172317232 -1.96123302150215
 1 -8.30141531623162 -5.40890915791579 -0.95511346684668
 1 -3.78966081748175 -3.54784107430743 -0.14568591719172
 1 -2.57648804180418 -6.80214531023102  2.32114544864487
 1 -1.99743819021902 -5.20994447834783  3.35652009460946
 1 -3.79531254765477 -5.76796188778878  3.48592546814682
 1  2.68584249174917 -2.27730537403740 -1.28257942494249
 1  2.43102799729973 -0.54528210901090 -2.04589235643564
 1  4.17087985968597 -1.32026434073407  0.34348225122512
 1  5.24241607080708  1.81476398539854 -2.39770449024902
 1  5.35469208640864  0.29374533703370 -3.29489089068907
 1  3.66874699289929  1.08831001780178 -2.83874469956996
 1  6.26933494969497  1.34881100610061 -0.16260645174517
 1  6.18201624632463 -0.21268115771577  0.57654536193619
 1  7.13356014091409 -1.50191691629163 -1.24022478207821
 1  7.54419396189619  0.33168518911891 -2.03444827382738
 1  8.81951743914391  1.21868070937094 -0.24944479617962
 1  8.89610267306731 -0.47800195169517  0.72902571497150
 1  10.25368803740374  0.05923848054805 -2.02635721072107
 1  9.48469878607861 -2.41916060926093 -2.19390793859386
 1  11.22464749584958 -2.35673727352735 -1.51996260116012
 1  9.58397341744175 -2.86097778337834 -0.39503777307731
 1  11.32539783718372  0.85081386148615 -0.01412282708271
 1  11.25826178967897 -0.54781001750175  0.80503043324332
 1  12.84304901550155 -1.68238981018102 -0.77614082708271
 1  12.78037618981898 -0.20140021902190 -1.88502003570357
 1  13.47352850775077  1.01335104590459  0.46430934183418
 1  13.84622884988499 -0.63085951375138  1.15426227212721
 1  15.23876622082208  0.25783698979898 -1.46973898719872
 1  15.08834438733873 -2.08006058785879 -1.35609494269427
 1  16.76944081758176 -1.95618965556556 -0.81575735963596
 1  15.62240751955195 -2.31493662626263  0.43729300070007
 1  15.80866113931393  1.67359392969297  0.89173963296330
 1  16.40216487328733  0.07010763406341  1.55081850445044
 1  18.19295051675168 -0.11201541204120 -0.38728859665967
 1  17.71478606420642  1.31089297759776 -1.22480091259126
 1  18.34044873437344  2.59373576947695  0.75404079377938
 1  18.65585783998400  1.30550636013601  1.77969511951195
 1  20.69588592099210  0.74534249524952  0.28171932813281
 1  19.54089144574458  3.20336860696070 -1.24266616901690
 1  21.33381062476248  2.58109617931793 -1.39138224482448
 1  19.85394036703670  1.73785940764076 -1.90991317281728
 1  20.70222545904591  1.83077454545455  2.32973401000100
 1  21.98811166836684  2.06657668506851  1.39753391049105
 1  20.88236786618662  3.62486568616862  1.38676741464146
 1 -7.35901773487349  1.58920779397940  0.74886673277328
 1 -7.80572212061206 -0.13107328332833 -0.15977610521052

