%nproc=4
%Mem=3GB
# td=(NStates=1) B3LYP/SVP 

TD

0 1
 8 -3.31647855805581 -1.30246530203020 -2.87632828712871
 8  3.14045450025003  3.07879953845385  3.11122539343934
 8  3.90103441164116  1.38174530283028  4.18110255385539
 8  7.80770937383738 -1.49504561876188 -0.79727048884888
 8  6.63313747014701 -3.10861165606561 -2.00904735283528
 8 -2.69031993849385  1.80505599469947  1.50124018451845
 7 -0.25438118431843 -2.36149246354635  0.92710755155516
 7 -2.73262530053005 -1.28076321132113 -0.61792393699370
 7  1.17545909530953  0.04906581628163 -0.65415035223522
 7 -1.12137128262826  1.45351075897590 -0.19654055195520
 6 -3.42905805550555 -1.36875443784378  0.63781075497550
 6 -2.69276790289029 -2.33653779998000  1.64028933573357
 6 -1.23545918761876 -1.91477929192919  1.85029301790179
 6 -0.58038784108411 -1.22696388808881  2.82852087258726
 6  0.72703381598160 -1.18317331833183  2.52340353495350
 6  0.85364805100510 -1.86655309000900  1.22729753375337
 6 -4.81017596419642 -1.95286093479348  0.23240012731273
 6  1.83823841524152 -0.40937126672667  3.18540069456946
 6 -4.77484384578458 -2.09400810921092 -1.09094943544354
 6  2.00918887528753 -1.97448564076408  0.21830410911091
 6  2.08830485238524 -0.90450236243624 -0.66312021352135
 6 -3.52830750065006 -1.52122408770877 -1.70241752515252
 6  3.07078814201420 -0.65120586888689 -1.71109500840084
 6 -1.23662223442344 -0.62920677767777  3.96491199949995
 6 -5.86707193129313 -2.21498797909791  1.19239024462446
 6  2.52579223612361  0.51467883608361 -2.41962657265727
 6  1.94166359875988  1.03750944294429  2.81533817541754
 6  1.31427479397940  0.99836648524852 -1.72065817181718
 6  4.30988633773377 -1.43512294139414 -1.98714834493449
 6 -5.86504084018402 -2.54485657605761 -2.02652610081008
 6  5.45155070607061 -1.09593133833383 -1.19568298519852
 6  3.22279237463746  1.19390779337934 -3.57441395059506
 6  0.54830725482548  2.07951309820982 -1.82662440754075
 6  3.06901554185419  1.83302288778878  3.43085843104310
 6 -0.58114194579458  2.33367800000000 -1.10471575947595
 6 -6.77769169566957 -3.35954971907191 -1.70381894059406
 6  6.68185775537554 -2.03499175427543 -1.40843153315332
 6 -1.41935058985899  3.51959419261926 -1.22696077077708
 6 -2.31167525692569  3.53901438043804 -0.19584749094910
 6 -2.03186545894589  2.18348928242824  0.48926785878588
 6 -1.28190816921692  4.47469372957296 -2.33665543354335
 6 -3.42026266276628  4.39578006090609  0.23630787048705
 6 -1.95152904410441  5.64599001720172 -2.51586531933193
 1 -3.61683017621762 -0.26116160606061  1.11763596819682
 1 -2.67099872627263 -3.31710683568357  1.19090944004400
 1 -3.28319813961396 -2.21437488188819  2.60800018871887
 1 -0.55193049784979 -2.96880564566457  0.13995100510051
 1 -2.19258764846485 -0.46463276677668 -0.77340144254425
 1  1.63555151655165 -0.43681513531353  4.21536363546355
 1  2.80167750065006 -0.93948583988399  3.16195112451245
 1  2.64802361626163 -2.73830541344134  0.54195724892489
 1 -2.29110173947395 -1.11465073907391  3.92175923772377
 1 -0.80330009800980 -0.47201140474047  4.94236059255926
 1 -1.54242355615562  0.35058750545055  3.43359212451245
 1 -5.73652443964396 -1.56738486968697  2.07345163816382
 1 -5.64241300200020 -3.29334343894389  1.50782362866287
 1 -6.91278865566557 -2.16331197459746  0.74243060476048
 1  2.05666180558056  1.24171411331133  1.77957556885689
 1  1.03662361386139  1.54069631393139  3.29690766446645
 1  0.21217947554755  0.17440180998100 -0.17584961726173
 1  4.54838055725573 -1.31509456845685 -3.21422702460246
 1  4.12991382118212 -2.56106788598860 -1.93263037103710
 1 -5.50671280968097 -2.10661158575858 -3.01552501630163
 1  5.25750367166717 -0.80740122002200 -0.08814559085909
 1  5.79636107740774 -0.14948194429443 -1.38845332783278
 1  3.83083299479948  0.33868036013601 -4.16719494899490
 1  4.07149290089009  2.11323240194019 -3.06064840024002
 1  2.40278606790679  1.71636613451345 -4.41137428942894
 1  0.61739564956496  2.71821331783178 -2.77576846884688
 1 -7.18301738783878 -3.68230041394139 -0.73396241744174
 1 -7.53658192309231 -3.72457378787879 -2.48427148064807
 1  3.95722945044504  3.56685604660466  3.53748700290029
 1 -0.51771565036504  4.26245752525253 -2.89518741414141
 1 -4.14294288388839  4.72732931473147 -0.60332148364837
 1 -4.14238298799880  3.77646243984398  0.98625943734373
 1 -3.05906422262226  5.38178846994699  0.74028979887989
 1  8.24959065256526 -2.54982813701370 -0.87486812181218
 1 -1.72148507310731  6.43370382748275 -3.28874372657266
 1 -2.45806815971597  6.16915829162916 -1.50349625712571

