%nproc=4
%Mem=4GB
# td=(NStates=1) B3LYP/SVP 

TD

0 1
 8 -5.31070730073007  0.24566000560056 -3.30964075377538
 8  3.08249825532553  2.82329958465847  3.19964604300430
 8  3.43692204080408  0.55375077407741  3.15052693779378
 8  1.73973161266127 -7.07396366646665  1.63115162146215
 8  0.61651653965397 -6.87842426602660 -0.35314329722972
 8  1.66504355245525  3.98886200900090  0.03607311471147
 7 -2.34457406850685 -1.01279971017102  0.59777679427943
 7 -4.31784666606661  0.57940560706071 -1.26109446424642
 7  1.73677406900690 -0.69041061406141 -0.45770424802480
 7  2.52527806970697  1.90800654615462 -0.59958670537054
 6 -4.69212560376038  1.10304180118012 -0.00377457765777
 6 -4.46352374517452  0.22479264456446  1.29503686138614
 6 -3.02891798739874 -0.10827057035704  1.45183719671967
 6 -2.06950604730473  0.47426238343834  2.16420959055906
 6 -0.75437204750475 -0.03943937943794  1.77342802040204
 6 -0.99437362516252 -1.02174523342334  0.86110793019302
 6 -6.16679903600360  1.31832962226223 -0.16609182458246
 6  0.52685129172917  0.11088176467647  2.57856687678768
 6 -6.62175268976898  0.83708295669567 -1.36518224692469
 6 -0.15268152425243 -2.04445318221822  0.22431451295130
 6  1.13236013221322 -1.96708625522552 -0.28079966216622
 6 -5.30970157045705  0.52898111281128 -2.12232954445445
 6  2.01486557175718 -2.95772631103110 -0.93222023132313
 6 -2.19115481638164  1.49041479837984  3.24570896109611
 6 -6.97385487868787  1.96619474867487  0.97392137803780
 6  3.12798913261326 -2.33873382458246 -1.34874611971197
 6  1.25052107940794  1.58130662406241  2.50610424632463
 6  2.95039311461146 -0.83481210681068 -1.04069805800580
 6  1.62636640684068 -4.33172913731373 -0.97934965186519
 6 -7.94378028402840  0.96586822442244 -2.07919630743074
 6  1.79705727132713 -4.97619855445545  0.43570956645665
 6  4.36056166516652 -2.91303977277728 -1.97491672297230
 6  3.91976284688469  0.12576197969797 -1.43360804320432
 6  2.67267788898890  1.44651223942394  2.99980588048805
 6  3.63007738553855  1.48815422692269 -1.20742731003100
 6 -9.10934591799180  1.08346050635064 -1.61004581988199
 6  1.32629769446945 -6.37013366356636  0.45860451945195
 6  4.49760859545955  2.69930668556856 -1.48390547364736
 6  3.82367163556356  3.78100862456246 -1.00938223252325
 6  2.56297786858686  3.39867771887189 -0.53283204590459
 6  5.75114872017202  2.52940778137814 -2.11449340444044
 6  4.06992261206121  5.32521739753975 -1.20349236263626
 6  6.61583164076408  3.37104278907891 -2.60694517141714
 1 -4.15655014111411  2.06904798489849  0.22173521382138
 1 -5.13400805770577 -0.72915439153915  1.08674341854185
 1 -4.74651149104911  0.81745574527453  2.16486339603960
 1 -2.79455849574957 -1.69231662716272 -0.14335125692569
 1 -3.49718071537154  0.62235415251525 -1.82354990589059
 1  0.38334276897690 -0.14903459145915  3.64956450455046
 1  1.23850786018602 -0.49585425282528  2.18457359015902
 1 -0.69003766466647 -2.98260572557256  0.06228123042304
 1 -3.20281042634263  1.72951421552155  3.41715170487049
 1 -1.66971818691869  1.14866423032303  4.13649203710371
 1 -1.62445882698270  2.51927574737474  3.01825924772477
 1 -6.39930338123812  2.53704250775078  1.57327956095610
 1 -7.51102086908691  1.19845965516552  1.64350136083608
 1 -7.76891282848285  2.52914899799980  0.48073655385539
 1  1.25504821322132  2.13719575617562  1.45221328862886
 1  0.70988410091009  2.30149697169717  3.08010383458346
 1  1.54950927732773  0.28836948194819 -0.03807917321732
 1  2.37402519471947 -4.90546437683768 -1.55341995169517
 1  0.60797259475948 -4.55463531103110 -1.33879236263626
 1 -7.94898596039604  0.94453468406841 -3.08943488168817
 1  1.18819100800080 -4.51041222092209  1.37390496709671
 1  2.91308757885789 -5.01019822432243  0.51170898579858
 1  3.99139420172017 -4.13241069326933 -2.09051251235123
 1  5.27798889728973 -2.89161801200120 -1.24334795239524
 1  4.52573400650065 -2.47906013861386 -2.85861493509351
 1  4.79453907340734 -0.08303039753975 -2.12998917461746
 1 -9.38145174567457  1.13300075557556 -0.65408809860986
 1 -10.00297843144314  0.85558697439744 -2.29593569356936
 1  3.99955464196420  2.70924430813081  3.61804657035704
 1  5.98135160336034  1.49645179437944 -2.44302311731173
 1  4.82925362516252  5.71842460666067 -0.35116373627363
 1  4.11399342184218  5.74942170787079 -2.34109665456546
 1  3.21770944054405  6.08515812221222 -0.88656039763976
 1  1.04979228732873 -7.79408056515652  1.66714276917692
 1  7.60261270567057  3.15053059295930 -3.02256953025303
 1  6.39400128762876  4.56944245644564 -2.74007636013601

