%nproc=4
%Mem=4GB
# td=(NStates=1) B3LYP/SVP 

TD

0 1
 8 -5.18597482748275  0.29737517711771 -3.31162095179518
 8  2.93323332883288  2.94648190289029  3.25016109450945
 8  3.38579692829283  0.75163056205621  2.60517240234023
 8  1.76049368886889 -6.97292356245624  1.57764627092709
 8  0.80711559955996 -7.05566198979898 -0.58853683658366
 8  1.68464551265127  3.95547867066707  0.08166767416742
 7 -2.38920853195320 -1.03853228342834  0.62266928352835
 7 -4.29333421482148  0.69882754925493 -1.18736709150915
 7  1.80105049664966 -0.69144071707171 -0.41244972257226
 7  2.66175171707171  1.86989273477348 -0.32970971767177
 6 -4.75518190939094  1.18275977297730  0.08228402820282
 6 -4.44307169997000  0.23463362866287  1.22640999869987
 6 -2.91657675327533 -0.01105084838484  1.40402241524152
 6 -1.97299639633963  0.49471442864286  2.14185735533553
 6 -0.73295990629063 -0.13787922342234  1.81102177977798
 6 -1.02656684448445 -0.97218027692769  0.82933475287529
 6 -6.18479083518352  1.38828661796180 -0.11757697309731
 6  0.57213582018202  0.22702337883788  2.54643366346635
 6 -6.55096561106111  1.03298254665467 -1.35867159585959
 6 -0.22918917501750 -1.98276701360136  0.20832291379138
 6  1.08121501770177 -1.86302584918492 -0.25036661886189
 6 -5.34896549684968  0.62417063176318 -2.18141545304530
 6  1.79904398959896 -2.95064560296030 -0.94893190249025
 6 -2.22953865476548  1.66711246814681  3.19575396559656
 6 -7.11720921412141  1.99978810801080  0.91174516041604
 6  3.09133546724672 -2.42020197139714 -1.30436168126813
 6  1.14534056135614  1.55124361776178  2.53674731063106
 6  2.99861793709371 -0.92585121072107 -0.98519250745075
 6  1.38405217541754 -4.31876784118412 -0.93391510841084
 6 -7.87575348134814  0.83810544814481 -1.95310369816982
 6  1.79655722132213 -4.97511844644464  0.41814781028103
 6  4.21791740074007 -3.14198266706671 -1.97216644794479
 6  3.96815768636864  0.08627803130313 -1.17348203060306
 6  2.60081070227023  1.74607219541954  2.80376627652765
 6  3.72697707550755  1.46632204370437 -0.99392595989599
 6 -9.04554953835384  0.62781494179418 -1.45251006630663
 6  1.37062212691269 -6.43609025922592  0.33818247724772
 6  4.51645047964796  2.56178293319332 -1.51162824592459
 6  3.81614088248825  3.71302182588259 -1.00203149744974
 6  2.52501407220722  3.33900175127513 -0.48925768846885
 6  5.90639424472447  2.48415325592559 -2.11009296439644
 6  4.21797741754175  5.14954983078308 -1.06990900430043
 6  6.57641769936994  3.47162284708471 -2.67675215211521
 1 -4.24093857995800  2.04801588168817  0.24320736103610
 1 -4.85016967386739 -0.72488396449645  1.04547929212921
 1 -4.76539337923792  0.70970497019702  2.05821273097310
 1 -2.80841988188819 -1.49924732023202 -0.04883180498050
 1 -3.43412440974097  0.99698161526153 -1.51618916981698
 1  0.37887232193219 -0.17700738873887  3.68085763386339
 1  1.25218922832283 -0.51194586198620  2.14929006180618
 1 -0.71461012191219 -2.95343280828083 -0.02330732843284
 1 -3.32036218151815  1.54097536163616  3.45543553325332
 1 -1.75128634373437  1.33508287218722  4.02572095999600
 1 -1.99881626272627  2.61218503830383  2.68229565136514
 1 -6.84252770367037  2.62768157165717  1.66442867586759
 1 -7.60719048604860  1.29674948414841  1.51430844154415
 1 -7.97279321652165  2.42201828492849  0.34627310751075
 1  1.01106381478148  2.06306834343434  1.58819688698870
 1  0.59144225672567  2.19189601160116  3.26450227442744
 1  1.50104443084308  0.40081072607261 -0.04788015331533
 1  1.95100289248925 -5.11789561996200 -1.64811942164216
 1  0.39069086658666 -4.64904475197520 -1.14933341674167
 1 -7.75349641144114  0.82341257185719 -3.12837877607761
 1  1.29713190209021 -4.55918709840984  1.19030660726073
 1  2.78606487658766 -4.94530173467347  0.65515333023302
 1  3.73000806310631 -4.12014946714671 -2.37215067616762
 1  5.08335943434343 -3.04860371057106 -1.33056667426743
 1  4.49453088618862 -2.63841607420742 -2.96719579317932
 1  4.89327894739474 -0.10868296279628 -1.63172934863486
 1 -9.24078767926793  0.27218467396740 -0.36650934073407
 1 -10.08099623322332  0.06451786748675 -2.15710181018102
 1  3.82666735323532  2.94189757345735  3.34784955065507
 1  6.33682715091509  1.41081323052305 -2.01097991299130
 1  5.32230293009301  5.36339910411041 -0.90514913481348
 1  4.20541256375637  5.47502426812681 -2.24481702660266
 1  3.49898756835684  5.49752935933593 -0.39815155675568
 1  1.36517382548255 -7.83236439353935  1.33469952485249
 1  7.36718916331633  3.15867140704070 -3.19504677797780
 1  6.32916480398040  4.51582709490949 -2.84150650315032

