%nproc=4
%Mem=4GB
# td=(NStates=1) B3LYP/SVP 

TD

0 1
 8 -5.27790402040204  0.41847728732873 -3.34860465016502
 8  3.08095810131013  2.93765101980198  3.22597867626763
 8  3.24093244184418  0.62121752075207  2.96210809590959
 8  1.74387202670267 -7.21277754785479  1.55649415571557
 8  0.99325421342134 -7.16962338593859 -0.63989197209721
 8  1.75826287438744  4.06635975877588  0.10456996439644
 7 -2.35599521062106 -0.96147457765777  0.63289030563056
 7 -4.34830971237124  0.69996766326633 -1.23234158895890
 7  1.86933732533253 -0.64441601460146 -0.28607708530853
 7  2.56648219011901  1.90330607610761 -0.38290503720372
 6 -4.70777716891689  1.19762125912591  0.05603140294029
 6 -4.42491988478848  0.27110727602760  1.24383174087409
 6 -2.97787288288829  0.00759101580158  1.47094910791079
 6 -2.07008610531053  0.61019597679768  2.23972714231423
 6 -0.72787939823982 -0.00664610011001  1.92154283188319
 6 -1.08778296609661 -0.97750080898090  0.90519233863386
 6 -6.20959331543154  1.28822661196120 -0.16854206960696
 6  0.55225383198320  0.24091476797680  2.65754477457746
 6 -6.58361887638764  0.96408565696570 -1.42728845754575
 6 -0.13117937403740 -1.91303003990399  0.18706078757876
 6  1.12914981118112 -1.76134568116812 -0.24428601080108
 6 -5.39386998729873  0.63463167786779 -2.18351566306631
 6  1.88730281548155 -2.91909244764476 -0.85376238553855
 6 -2.41475717661766  1.65065082198220  3.34019841004100
 6 -7.13530102330233  1.83653178237824  0.91406539243924
 6  3.05789212291229 -2.38070802200220 -1.31049229432943
 6  1.08702472977298  1.67566606000600  2.52225586148615
 6  2.98305638093809 -0.91377000260026 -1.01122511071107
 6  1.52909667986799 -4.36325228962896 -0.81839355625563
 6 -7.86755266126613  0.72795443304330 -2.13779216701670
 6  1.92119968556856 -5.15683661826183  0.42880887638764
 6  4.14718032703270 -2.95849431823182 -2.13482271357136
 6  3.90186105670567  0.08189759325933 -1.38518320072007
 6  2.57392801400140  1.67594518271827  2.91072697259726
 6  3.65512989078908  1.44686009750975 -1.13988055535554
 6 -9.09158414181418  0.84496665696570 -1.55427024232423
 6  1.45584064876488 -6.57733438363836  0.32713137213721
 6  4.54329316391639  2.57927468236824 -1.51108819191919
 6  3.85724499289929  3.73921444514451 -1.01361265556556
 6  2.57476904770477  3.31013886498650 -0.33311207390739
 6  5.77836144144414  2.37514235483548 -2.20093204830483
 6  4.31331695149515  5.09849472527253 -1.11721373477348
 6  6.47281733933393  3.36282196699670 -2.91999647654765
 1 -4.28252273837384  2.24612569266927  0.14639768006801
 1 -4.95581023792379 -0.56240771687169  1.22985772997300
 1 -4.80975781568157  0.86475047474747  2.10319722942294
 1 -2.98042708260826 -1.32681007650765 -0.14059098089809
 1 -3.33507450475048  0.82591450855086 -1.41695924682468
 1  0.38515294999500  0.00856116811681  3.76653620172017
 1  1.28806281568157 -0.43209787718772  2.34083921672167
 1 -0.57761642254225 -3.05799326432643 -0.10125512321232
 1 -3.44058420372037  2.05858712281228  3.47754774447445
 1 -1.97644885998600  1.21026038993899  4.26437482538254
 1 -1.56818319941994  2.55124894469447  3.07021444324432
 1 -6.57230068096810  2.58901770527053  1.41612384538454
 1 -7.78629839683968  1.33881369056906  1.57552456315632
 1 -7.87522345954595  2.52761884498450  0.30450893109311
 1  0.93298600700070  2.05278731533153  1.50731879917992
 1  0.64580769326933  2.47219404140414  3.17921374557456
 1  1.78123244964496  0.18187883288329 -0.03253861916192
 1  2.09232702490249 -4.86933076347635 -1.68902351205121
 1  0.43582538003800 -4.50702054955496 -0.83528201160116
 1 -7.86144720652065  0.55484571517152 -3.21461739993999
 1  1.39569175807581 -4.93586476617662  1.46761433803380
 1  3.07406367646765 -5.06225342984298  0.80281809670967
 1  4.08564362666267 -3.97986543874387 -2.46717017811781
 1  5.11309240764076 -2.94689353955396 -1.42969658725873
 1  4.52738417151715 -2.40654288688869 -2.97471654525453
 1  4.73615323482348 -0.12028412291229 -2.03795997169717
 1 -9.23652725322532  1.16738419391939 -0.37965065486549
 1 -9.94881301490149  0.82558397409741 -2.27917401740174
 1  4.02114680118012  2.81245462916292  3.35117988368837
 1  6.11662513071307  1.36795894509451 -2.71131994699470
 1  5.40717141694169  5.35901866606661 -0.65142376227623
 1  4.34113613611361  5.41274804050405 -2.15987853275328
 1  3.46019368896890  5.80376998339834 -0.75670741234123
 1  1.70743805190519 -8.20138129522952  1.45852190709071
 1  7.12061450585059  3.14843038293829 -3.80215748904891
 1  6.29059094659466  4.40741625382538 -2.66897925042504

