%nproc=4
%Mem=3GB
# td=(NStates=1) B3LYP/SVP 

TD

0 1
 8 -3.29002591279128 -1.33301835733573 -2.90110076437644
 8  3.14841529632963  3.20631228972897  3.14968923982398
 8  3.67762207040704  1.39900702900290  4.46127057065707
 8  7.81956055895589 -1.49082519671967 -0.80710147194719
 8  6.60800495689569 -3.04642543744374 -1.94999144724472
 8 -2.47020792729273  1.64578006710671  1.50683074357436
 7 -0.22467821402140 -2.46799311361136  0.85011985278528
 7 -2.72242428042804 -1.11275641064106 -0.55504764936494
 7  1.14307585698570  0.09217012671267 -0.78069300650065
 7 -0.99382852835284  1.49122453035304 -0.17660855875588
 6 -3.34767991769177 -1.35069263166317  0.73417039093909
 6 -2.66342496859686 -2.48593273947395  1.53179848664866
 6 -1.26877251895190 -2.09169698369837  1.76313430203020
 6 -0.68502830513051 -1.24782597429743  2.80843886438644
 6  0.68296940954095 -1.14837983898390  2.48840003460346
 6  1.01066375257526 -1.77483391809181  1.22572737673767
 6 -4.71452639923992 -1.91323697239724  0.25913280058006
 6  1.74557914931493 -0.34874520412041  3.23047520202020
 6 -4.78935529692969 -1.98831754015402 -1.10526086658666
 6  2.07461541794179 -1.89030722292229  0.35507778647865
 6  2.05790181208121 -0.92447435963596 -0.63929783128313
 6 -3.51425609550955 -1.45279724502450 -1.69062634603460
 6  3.02734379757976 -0.66626737503750 -1.72570646954695
 6 -1.46835540774077 -0.53456731373137  3.76362187048705
 6 -5.73855908000800 -2.13961044134413  1.38624963056306
 6  2.54780443734373  0.42615998419842 -2.55249985998600
 6  2.07686711911191  1.09714540654065  2.69982662426243
 6  1.34071743824382  0.88525517411741 -1.91006711271127
 6  4.17597294639464 -1.53832326142614 -2.05562519261926
 6 -5.90691502760276 -2.46867895829583 -1.96651009920992
 6  5.41038658965897 -1.11790353555356 -1.11613503040304
 6  3.25182527792779  1.10576897949795 -3.69595610481048
 6  0.45532795689569  2.02411755865587 -2.09487123222322
 6  3.03859249954996  1.85171475697570  3.55559090429043
 6 -0.67320115171517  2.25860049224922 -1.25380066796680
 6 -6.86396032253225 -3.32047581168117 -1.80877943664366
 6  6.67920749034904 -1.97687594269427 -1.35333602360236
 6 -1.52597125192519  3.52536476967697 -1.31549962466247
 6 -2.24018810821082  3.45657613661366 -0.12955086128613
 6 -1.92750502290229  2.15775670917092  0.52510144214421
 6 -1.33003298169817  4.50268652885288 -2.28496026402640
 6 -3.33333396989699  4.37331781468147  0.31734597429743
 6 -2.05229912111211  5.65601101930193 -2.28435216801680
 1 -3.36047454065407 -0.59249473937394  1.45018922352235
 1 -2.81973359975998 -3.38552367736774  1.12218256735674
 1 -3.35740556035604 -2.37991143554355  2.49401879057906
 1 -0.42414771957196 -3.13279204430443  0.18309531953195
 1 -1.94905329502950 -0.50928723222322 -0.72564666706671
 1  1.15850381178118 -0.25470692449245  4.19000109920992
 1  2.52053938683868 -1.11592348364837  3.48267319671967
 1  3.00347916181618 -2.57000858375838  0.45289834303430
 1 -2.32819544884488 -1.04151342534253  4.15487254905491
 1 -0.86488625662566 -0.12444664826483  4.63581993849385
 1 -1.82833214701470  0.25973842054205  3.11723048834883
 1 -5.38687947514751 -1.37574570577058  2.21749604260426
 1 -5.63805256595660 -3.14077818241824  1.92467531383138
 1 -6.67647502430243 -2.14742038543854  0.98748511021102
 1  2.50054619401940  1.18821876377638  1.82547015831583
 1  0.95724567606761  1.64169641394139  2.49920789448945
 1  0.34700295789579  0.22682705250525 -0.17423945624562
 1  4.58298401760176 -1.48540159915992 -3.05031063296330
 1  4.06642747254725 -2.50043182238224 -1.83702081008101
 1 -5.75623776217622 -2.10949187378738 -3.04203766756676
 1  5.09348727002700 -1.15468594849485  0.01148437213721
 1  5.68756019731973  0.00443344724472 -1.09004348684868
 1  3.93756366786679  0.32628912101210 -4.13977220672067
 1  3.87032278387839  2.06005708440844 -3.54328666406641
 1  2.42815860516052  1.26858135603560 -4.46827997999800
 1  0.67767167716772  2.66107760426043 -3.16968786078608
 1 -7.04351343744374 -3.87723990789079 -0.89046806800680
 1 -7.66507477237724 -3.43846517701770 -2.57516056955696
 1  3.91240496799680  3.43733309430943  3.72685593979398
 1 -0.37577145594559  4.53694497399740 -2.93399129452945
 1 -4.25077366696670  4.31156773857386 -0.21535268676868
 1 -3.46167491719172  3.99097389098910  1.49167997939794
 1 -2.98336665286529  5.41533182428243  0.64474024392439
 1  8.47006269976998 -2.26452960716072 -0.89373000800080
 1 -1.74968789338934  6.54110456755676 -2.96247109930993
 1 -2.93165551845184  5.71142251805180 -1.50317622512251

