%nproc=4
%Mem=3GB
# td=(NStates=1) B3LYP/SVP 

TD

0 1
 8 -3.27165407560756 -1.49618467396740 -2.82484313861386
 8  3.05312576737674  3.03074473297330  3.02037630853085
 8  3.63504781298130  1.50807793609361  4.41471591519152
 8  7.63195179807981 -1.34128024222422 -0.69495025682568
 8  6.68541269766977 -3.15509630453045 -1.72763921202120
 8 -2.56652755925593  1.62240772987299  1.40730079057906
 7 -0.28791453765377 -2.42237855215522  0.86526136693669
 7 -2.71626366436644 -1.16341147614761 -0.64275642024202
 7  1.13944549394939  0.08389929962996 -0.75811074827483
 7 -1.04668381388139  1.51823723162316 -0.31124202210221
 6 -3.32389753945395 -1.30660822322232  0.62123909780978
 6 -2.65866449254925 -2.40150429662966  1.67525283208321
 6 -1.24071971367137 -2.07541535553555  1.75480346894689
 6 -0.47632743504350 -1.36098729042904  2.89645766626663
 6  0.86126723932393 -1.22682768376838  2.50918211281128
 6  0.97653033923392 -1.91908834353435  1.25226003000300
 6 -4.81942688928893 -1.82506815551555  0.20646753405341
 6  1.89114370577058 -0.48198852845285  3.02870502500250
 6 -4.76130249164916 -2.04396310471047 -1.07060740124012
 6  2.11526948334833 -1.97340553275328  0.32442472117212
 6  2.08297431933193 -0.93869578177818 -0.70251415291529
 6 -3.47530220012001 -1.62398436373637 -1.62520980438044
 6  3.08755981918192 -0.63262401070107 -1.81360525942594
 6 -1.19124769696970 -0.71867572457246  3.91969747804780
 6 -5.73909913401340 -2.03872035233523  1.40046105170517
 6  2.56167582448245  0.47444481268127 -2.49565417541754
 6  1.86256568896890  1.07193288528853  2.83335997759776
 6  1.44834820132013  0.89634628322832 -1.75702180818082
 6  4.26741209030903 -1.45078450755076 -2.13783341344134
 6 -5.85293963006301 -2.53338542894289 -2.04290773897390
 6  5.38092364336434 -1.02043378857886 -1.26523994089409
 6  3.14301439683968  1.17133553615362 -3.70540704990499
 6  0.52917534163416  2.02067721462146 -1.97992973807381
 6  2.98039667996800  1.90372995849585  3.49131447664766
 6 -0.59585341694169  2.22529716191619 -1.28041332923292
 6 -7.15273920042004 -3.05402916701670 -1.70085864456446
 6  6.65166473607361 -1.94668292339234 -1.28537922792279
 6 -1.41217987278728  3.57172940614061 -1.27520559525953
 6 -2.27224131353135  3.40538101710171 -0.15108301450145
 6 -1.91283355575558  2.12965389888989  0.44938387038704
 6 -1.25636561496150  4.68157441764176 -2.26072784078408
 6 -3.43727436393639  4.29833031593159  0.41207544724472
 6 -1.90147403860386  5.75921133933393 -2.35898963176318
 1 -3.53228172137214 -0.32387787768777  1.09078328292829
 1 -2.94217584398440 -3.22967809280928  1.39678002710271
 1 -3.16832665246525 -2.31340478487849  2.65741513021302
 1 -0.45617092189219 -3.00979974507451  0.06353336333633
 1 -1.98487687738774 -0.44936123962396 -0.99771387378738
 1  1.79569753115312 -0.51308276207621  4.18074017311731
 1  2.80929826272627 -1.03029492079208  2.78764369376938
 1  2.77692650655066 -2.72136371927193  0.39098215141514
 1 -2.13834646394639 -1.20698997299730  4.41729879167917
 1 -0.61597136513651 -0.41281548514851  4.74529088558856
 1 -1.71482079587959  0.21819426612661  3.56872563786379
 1 -5.47146793399340 -1.64830296149615  2.25979027202720
 1 -6.00301906260626 -3.18432253685368  1.70411325762576
 1 -6.73754113091309 -1.67229287268727  1.04456081778178
 1  2.07712385178518  1.35167510941094  1.76469408070807
 1  0.74700465196520  1.40840308460846  2.71518949264927
 1  0.28996725432543  0.18626299609961 -0.20567259955996
 1  4.48362408160816 -1.26959001800180 -3.10042564446445
 1  4.14717554735473 -2.46665844504450 -2.15067217521752
 1 -5.82267440584058 -2.37048797339734 -3.10911437523752
 1  4.91045896719672 -0.92656313621362 -0.20823760006001
 1  5.72495393669367  0.02384538843884 -1.61365584808481
 1  3.87361727322732  0.49478597069707 -4.18100633013301
 1  3.39397514911491  2.06656773547355 -3.45113744914491
 1  2.39184497379738  1.29986448434843 -4.31810496249625
 1  0.67497140714071  2.64851634813481 -2.88512940494049
 1 -7.36015510161016 -3.23637582148215 -0.54820384158416
 1 -7.72874113901390 -3.38679000950095 -2.58688174167417
 1  3.68755248274828  3.63107246824682  3.49034228842884
 1 -0.47628150695069  4.28953023252325 -3.18828672407241
 1 -4.33005159475948  4.48414499629963 -0.46172732423242
 1 -3.83268201790179  3.83801859545955  1.40402121352135
 1 -3.30587890409041  5.37971826292629  0.63747951785178
 1  8.44461015451545 -1.89828298249825 -0.98653928892889
 1 -1.64858778337834  6.48450890799080 -3.22863771597160
 1 -2.39871222412241  6.44226560236024 -1.54213012051205

