%nproc=4
%Mem=4GB
# td=(NStates=1) B3LYP/SVP 

TD

0 1
 8 -5.23231946194619  0.03245868546855 -3.29705949564956
 8  3.03839384488449  2.88621587628763  3.31918799719972
 8  3.39056740534053  0.68702410141014  2.86426831193119
 8  1.37655529502950 -7.02339860996100  1.56798530483048
 8  0.36202109010901 -6.91587801140114 -0.46976495939594
 8  1.77286433453345  4.02645576837684 -0.02295278787879
 7 -2.29521913301330 -0.91440987118712  0.49281629822982
 7 -4.29800468186819  0.67684535103510 -1.23395174997500
 7  1.91543193479348 -0.65636720972097 -0.34786326392639
 7  2.61549709160916  1.85132087758776 -0.58047479417942
 6 -4.86762315351535  1.23600509750975  0.05063086288629
 6 -4.35072246504650  0.34905507080708  1.24698205590559
 6 -2.88454354995500  0.01355161186119  1.32840485348535
 6 -1.89507860456046  0.67186214341434  2.13353652325232
 6 -0.67450406070607 -0.01738717421742  1.79787046464646
 6 -0.98433262106211 -0.95691875077508  0.71691351075108
 6 -6.33805616171617  1.24604239353935 -0.09537475287529
 6  0.61334994159416  0.13018369486949  2.53578259835984
 6 -6.68882939743974  0.79127837623762 -1.38568429712971
 6 -0.14438069416942 -1.96020475737574  0.11814389588959
 6  1.16461335753575 -1.79295884248425 -0.37776935913591
 6 -5.43293389368937  0.48408662336234 -2.08387569906991
 6  1.93935802100210 -2.86572711111111 -0.90862787208721
 6 -2.13718941984198  1.68839459635964  3.16070046024602
 6 -7.22648014121412  1.68880700990099  1.06750073597360
 6  3.12599893359336 -2.29318927012701 -1.35060630573057
 6  1.19748577587759  1.60802929632963  2.58561219711971
 6  3.13802187748775 -0.91127975357536 -0.98387237543754
 6  1.50410418061806 -4.23907987238724 -0.99213092999300
 6 -7.94886079207921  0.62074371197120 -2.02917130493049
 6  1.68805637123712 -5.11602253685369  0.30786678217822
 6  4.32129773877388 -3.11280974977498 -1.84334356565657
 6  4.05243611421142  0.15189459295930 -1.23018770117012
 6  2.66308692989299  1.66748433663366  2.98219411931193
 6  3.77816219401940  1.59365477697770 -0.97480404770477
 6 -9.20362534593459  0.52662482278228 -1.41142595789579
 6  1.05823088778878 -6.45263191339134  0.34928358735874
 6  4.64088292289229  2.78134488938894 -1.47634471757176
 6  3.89465873427343  3.81304182788279 -1.10439173347335
 6  2.61589316011601  3.26823467456746 -0.50896965966597
 6  5.89207281258126  2.49044388498850 -2.14946690179018
 6  4.26577219701970  5.22378725452545 -0.97625963936394
 6  6.69693975157516  3.47276296109611 -2.61732620952095
 1 -4.40148463456346  2.23617469756976  0.29064210451045
 1 -4.93338799569957 -0.50125160126013  1.41624636883688
 1 -4.71618845874588  0.87766176587659  2.12937984768477
 1 -2.63492253215322 -1.56303369886989 -0.31813873567357
 1 -3.34211520882088  1.01086300340034 -1.51704925582558
 1  0.47594202890289 -0.11359104710471  3.72410195829583
 1  1.41907591699170 -0.52909757715772  2.17738287108711
 1 -0.68537719861986 -2.95174263926393 -0.21046604430443
 1 -3.19722986828683  1.87763902800280  3.34683467316732
 1 -1.59894110921092  1.54869423332333  4.07486587448745
 1 -1.72768915001500  2.53981780158016  2.67813523532353
 1 -6.88619207010701  2.62459126262626  1.37059929292929
 1 -7.31364113111311  0.85408521772177  1.79339635033503
 1 -8.12936887408741  2.21591767486749  0.55429390959096
 1  0.97087979637964  1.96496853345335  1.49191725902590
 1  0.49312242474247  2.23498032003200  3.27385320952095
 1  1.62196652305231  0.35477612261226 -0.24794015931593
 1  2.04260205240524 -4.76210004040404 -1.90379498919892
 1  0.26624842234223 -4.58974882238224 -1.19797828122812
 1 -7.87235829762976  0.76585681628163 -3.24208014621462
 1  1.19947213611361 -4.53061424112411  1.05988356495650
 1  2.91593786388639 -5.16740394489449  0.69789760466047
 1  3.97029209150915 -4.19327677987799 -2.23967742884288
 1  5.08304940334033 -3.00501935213521 -1.07117073467347
 1  4.76363779687969 -2.57802003460346 -2.81432050565056
 1  5.05010462996300 -0.25624771927193 -1.88870504620462
 1 -9.24727832833283  0.37863531903190 -0.21889457925793
 1 -10.17906604020402  0.09032044774477 -1.97687378737874
 1  4.01097578407841  2.81474485818582  3.31564633033303
 1  6.44774824302430  1.62097424662466 -2.30004881988199
 1  5.41595229502950  5.18544130833083 -0.42519113901390
 1  4.44609663216322  5.89281604730473 -1.92322486738674
 1  3.55644331393139  5.81889149554955 -0.44763650525053
 1  0.78656596469647 -7.81590274737474  1.42144819971997
 1  7.55747819221922  3.21075661556156 -3.27378465176518
 1  6.39827171467147  4.65581109330933 -2.93079543204320

