%nproc=4
%Mem=4GB
# td=(NStates=1) B3LYP/SVP 

TD

0 1
 8 -5.30099632963296 -0.17546210661066 -3.26961675137514
 8  3.04593459895990  2.98018527322732  3.26629270767077
 8  3.34808315691569  0.70328572757276  2.95018690379038
 8  1.67527516701670 -7.24141041114111  1.42820132643264
 8  0.43128801680168 -7.01290771437144 -0.47996597949795
 8  1.78303535163516  3.93443656645665  0.27454696209621
 7 -2.33712332343234 -0.98134656485649  0.62489950655066
 7 -4.36629151055106  0.54082174867487 -1.19253760856086
 7  1.78486887848785 -0.69314088708871 -0.34448292589259
 7  2.67398294019402  1.84310005550555 -0.33837058375838
 6 -4.76048243944394  1.13334483148315 -0.05243944414441
 6 -4.39741713451345  0.23539370467047  1.30136749444944
 6 -2.96761185678568  0.01980223692369  1.40459247224722
 6 -1.92391148784878  0.69529448664866  2.11631480108011
 6 -0.67472408270827  0.04533909840984  1.81909258685869
 6 -0.99404359215922 -0.99632269116912  0.82633445284528
 6 -6.28596095219522  1.35906369566957 -0.25078029342934
 6  0.71931053765377  0.19809048554855  2.61147016711671
 6 -6.60598111261126  0.90566981538154 -1.44652038073807
 6 -0.13983023912391 -1.98036677357736  0.22870495199520
 6  1.15038193439344 -1.84423396999700 -0.20847242944294
 6 -5.38338893919392  0.28579679437944 -2.17156446794679
 6  1.97280136533653 -2.90237077547755 -0.94617162646265
 6 -2.24364006490649  1.71297705460546  3.19944433463346
 6 -7.03577107030703  1.97956608580858  0.88667265316532
 6  3.07140347404740 -2.28603855505551 -1.37232847794779
 6  1.11464749204921  1.74466295969597  2.72154579047905
 6  3.08718679397940 -0.85454408000800 -1.07971195939594
 6  1.52863663386339 -4.36818278267827 -0.99945166206621
 6 -7.93218912491249  0.87307894549455 -2.13011139893989
 6  1.72836040164016 -5.06179711431143  0.31427742324232
 6  4.16994260326033 -2.92945141394139 -2.06550578187819
 6  3.92773364396440  0.09141854535454 -1.36153083548355
 6  2.68104872607261  1.77547513571357  2.97649354925493
 6  3.72836721452145  1.46530194169417 -1.00636720402040
 6 -9.12893787718772  0.84635679597960 -1.54971978727873
 6  1.17432249694969 -6.51679833003300  0.33741240024002
 6  4.57625646024603  2.67978473337334 -1.42705978907891
 6  3.88476774517452  3.83152367606761 -0.96086738103810
 6  2.67361893269327  3.25900375147515 -0.36637540024002
 6  5.86932053735374  2.52564740534053 -2.27069902500250
 6  4.21300692049205  5.20325520132013 -1.15186720012001
 6  6.55047510511051  3.54353003780378 -2.84400887778778
 1 -4.21361584768477  2.06266734683468  0.16451949224923
 1 -5.18179283618362 -0.57627910401040  1.07603234743474
 1 -4.79216605650565  0.81847584728473  2.33956086578658
 1 -2.85290433033303 -1.63621101660166  0.10678375657566
 1 -3.42981397869787  0.35107702480248 -1.44859241014101
 1  0.41297573227323 -0.18559824782478  3.52228177627763
 1  1.59366337573757 -0.41151581898190  2.07533266606661
 1 -0.59013767466747 -3.11674913991399  0.11171617391739
 1 -3.37837798309831  1.77597886198620  3.48915890559056
 1 -1.71520273537354  1.53115247914791  4.20488887678768
 1 -1.87455383648365  2.78382220202020  3.05837325912591
 1 -6.59146259715972  2.87543634713471  1.39396162916292
 1 -7.31999176617662  1.37834764396440  1.75976298699870
 1 -8.07279321652165  2.43693977707771  0.41670015021502
 1  0.98707141554155  2.45375741234123  1.81625969326933
 1  0.68510162266227  2.44579140114011  3.46179200340034
 1  1.78338266466647  0.28639928492849 -0.02553791909191
 1  2.01330912311231 -4.90888471887189 -1.74630924062406
 1  0.53485528302830 -4.28806865436544 -1.14822330573057
 1 -7.97979904170417  0.76688691929193 -3.12092803100310
 1  1.24583677257726 -4.82049322902290  1.36092366896690
 1  2.78145441554155 -5.23857106160616  0.74799261416142
 1  3.79004406670667 -3.74278173037304 -2.45420888198820
 1  5.03457455585559 -3.02760161036104 -1.36222984058406
 1  4.39970140324032 -2.43475570817082 -3.00165923952395
 1  4.81560117961796 -0.19142123662366 -1.89069524522452
 1 -9.30220382088209  0.64971242674268 -0.39253194299430
 1 -9.98216635023502  0.81635305100510 -2.19864596459646
 1  3.96120080658066  3.10822420612061  3.57177194289429
 1  6.39180264846485  1.46238838803880 -2.64321313631363
 1  5.44678537833783  5.37225999019902 -1.22089070897090
 1  3.93059508200820  5.65705247094709 -2.28914145904590
 1  4.09055672527253  6.02715232163216 -0.16035777737774
 1  1.39736704480448 -8.17629878697870  1.42089814471447
 1  7.57273971837184  3.17761330123012 -3.41759903320332
 1  6.30510239773977  4.62628814101410 -2.59979233173317

