%nproc=4
%Mem=3GB
# td=(NStates=1) B3LYP/SVP 

TD

0 1
 8 -3.31524843504350 -1.57221227672767 -2.85820647494749
 8  2.86853730853085  3.24582624112411  3.22030630153015
 8  3.94156846504650  1.29066619491949  4.10793523712371
 8  7.66167477037704 -1.45552166636664 -0.62290305210521
 8  6.72281643804380 -2.88880967586759 -2.14425087318732
 8 -2.79518042454245  1.51294678377838  1.30232029252925
 7 -0.20367611381138 -2.46886320062006  1.00103494429443
 7 -2.63835587358736 -1.28137327232723 -0.60194233883388
 7  1.06420797019702 -0.03541263156316 -0.78349328652865
 7 -1.12305145064506  1.30719612751275 -0.32805370327033
 6 -3.41964711441144 -1.46096365876588  0.63473044694469
 6 -2.60246887298730 -2.40274442064206  1.54622992979298
 6 -1.12716835853585 -1.99352716671667  1.80640862946295
 6 -0.56374617691769 -1.14232542424242  2.72901092159216
 6  0.83878499109911 -1.04844984598460  2.43023421802180
 6  0.98512119831983 -1.86845328002800  1.21239604360436
 6 -4.83262820942094 -1.91663731243124  0.29935682298230
 6  1.84768936033603 -0.27261759135914  3.11421357585759
 6 -4.93219958135814 -2.13360206860686 -1.05008534903490
 6  2.17619557595760 -2.00235842804280  0.26012829152915
 6  2.17973399529953 -0.90774268646865 -0.64613851535154
 6 -3.51434610451045 -1.68305027032703 -1.67055433883388
 6  3.11284234743474 -0.60709145744574 -1.75320921982198
 6 -1.25159373157316 -0.41844570157016  3.83698920722072
 6 -5.93822904700470 -1.96120260056006  1.25474648024802
 6  2.59841949884989  0.53998136633663 -2.41929653965397
 6  1.82041147354735  1.20825651765177  2.81340798239824
 6  1.30886425292529  0.83190983958396 -1.76139224522452
 6  4.29368471757176 -1.47280670977098 -2.01561119121912
 6 -5.87458179427943 -2.55324741514151 -1.95120856905691
 6  5.39327487848785 -1.18181992719272 -1.06301971887189
 6  3.11125122052205  1.09286768936894 -3.63253976317632
 6  0.63263568766877  2.02905805270527 -1.98672041714171
 6  2.90504914521452  1.90920050555055  3.45456080128013
 6 -0.57999183078308  2.28016264846485 -1.27153244114411
 6 -7.07678160466047 -3.23425718981898 -1.62825138383838
 6  6.61820138973897 -1.98137639273927 -1.36597728772877
 6 -1.39513816861686  3.53417565076508 -1.20809888458846
 6 -2.19783387278728  3.43629410841084 -0.22223012921292
 6 -2.11047331973197  1.96519745324532  0.38938787078708
 6 -1.18804878327833  4.67777403760376 -2.09693146114611
 6 -3.20986162266227  4.42106258915892  0.28402264196420
 6 -1.69126301750175  5.94539995819582 -2.03672740554055
 1 -3.52946143934393 -0.47449293919392  1.09163336793679
 1 -2.68052967936794 -3.24423954895490  1.06918726782678
 1 -3.19213903370337 -2.54727817221722  2.48588797749775
 1 -0.32635794059406 -3.17493625872587  0.29513652365237
 1 -1.95765415511551 -0.55013131663166 -0.68126222862286
 1  1.62957091849185 -0.57454890869087  4.18402050115011
 1  2.84468180108011 -0.64634652595260  2.86243117251725
 1  3.08161697559756 -2.57610919381938  0.58742179537954
 1 -2.00911354065407 -1.11054032803280  4.63348040984098
 1 -0.52783255125513  0.05629142554255  4.45006136263626
 1 -1.87122643644364  0.46721916861686  3.50806957225723
 1 -5.76712749994999 -1.26222435363536  2.16283057605761
 1 -6.14292305300530 -3.04357846244624  1.71937478377838
 1 -6.86075345214521 -1.41798744214421  0.82436879857986
 1  1.82468860826083  1.24947488938894  1.56073368466847
 1  0.97698765026503  1.55873811811181  3.07908588228823
 1  0.18437669526953  0.13736810661066 -0.38491052335233
 1  4.43552927212721 -1.44154721372137 -3.07892349424943
 1  4.04293512331233 -2.67583936313631 -1.73214032203220
 1 -5.60662280068007 -2.18791971657166 -2.99241270507051
 1  5.01759968126813 -1.46853733363336 -0.05937271357136
 1  5.74317575887589 -0.28009500560056 -0.91415589808981
 1  3.84079399089909  0.47994448654865 -4.28570680018002
 1  3.54735048664866  2.15062614131413 -3.19283161856186
 1  2.14449023832383  1.10056455435543 -4.35201835383538
 1  0.74112802280228  2.66117761426143 -2.89582047404740
 1 -7.63613269936994 -3.30052223612361 -0.58843786498650
 1 -7.86976524142414 -3.55438676917692 -2.40534358785878
 1  3.66459018651865  3.52455181618162  3.59292254645465
 1 -0.74695857465747  4.34701598109811 -3.13649154455446
 1 -3.86774536413641  4.87866444824482 -0.52912406390639
 1 -4.08610736043604  3.96067086068607  0.84464527592759
 1 -2.53796211241124  5.24289458055806  0.88337410731073
 1  8.46245193869387 -2.12970612481248 -0.57903853885389
 1 -1.33537646224622  6.61652210931093 -2.89743459565957
 1 -1.99458181108111  6.48069944574458 -0.88778468596860

