%nproc=4
%Mem=4GB
# td=(NStates=1) B3LYP/SVP 

TD

0 1
 8 -5.39128535853585  0.19642508210821 -3.23382317201720
 8  3.10656066156616  3.01858911361136  3.09922600100010
 8  3.32353070167017  0.89847524652465  2.87803968906891
 8  1.68769640914091 -7.18086435653565  1.44143264956496
 8  0.54728961696170 -6.97363378697870 -0.53559154205421
 8  1.94750179827983  3.96174929772977  0.31978148554855
 7 -2.37259687078708 -0.85934436463646  0.56340335693569
 7 -4.36879176057606  0.46100376687669 -1.21443979877988
 7  1.81836222782278 -0.73954552755276 -0.46873535113511
 7  2.60588613051305  1.86547229272927 -0.48240498719872
 6 -4.80137652885289  1.21233273027303  0.04157995779578
 6 -4.44386177897790  0.35465563086309  1.30393775147515
 6 -2.94740983658366  0.07832808950895  1.41440345334533
 6 -1.93058215491549  0.63567852505251  2.10961413101310
 6 -0.65633224352435  0.08501306580658  1.74027470507051
 6 -0.92420660846085 -0.96397945684568  0.82120393979398
 6 -6.30244260036004  1.27948573787379 -0.06073128852885
 6  0.53525213181318  0.28397907440744  2.59657867796780
 6 -6.62058257275728  0.81534078247825 -1.34302003070307
 6 -0.22842909900990 -1.93307204410441  0.04677675917592
 6  1.06711360756076 -1.81264081068107 -0.41867344954495
 6 -5.49444004430443  0.45612382708271 -2.13471078257826
 6  1.94058814401440 -2.90608114651465 -0.97419442874287
 6 -2.19618531943194  1.80815657255726  2.98415280548055
 6 -7.22411990519052  1.71003913311331  0.97083106900690
 6  3.06307264096410 -2.36294624582458 -1.35120636573657
 6  1.07579360666067  1.73421191459146  2.62168580448045
 6  3.03550162546255 -0.96550517611761 -1.08618260646065
 6  1.47836160636064 -4.27298326272627 -0.93789550645065
 6 -7.97406331233123  0.68043968156816 -1.98750713851385
 6  1.76538410401040 -5.07186812141214  0.42616861236124
 6  4.36991260026003 -3.03740220902090 -1.99418865016502
 6  3.89589045964596  0.07928733223322 -1.51396607900790
 6  2.57916853805381  1.79747733593359  2.91201710161016
 6  3.69522390019002  1.40592600410041 -1.14002056935694
 6 -9.26414139753975  0.57462962326233 -1.46951176647665
 6  1.22579764446445 -6.53594024422442  0.37601626062606
 6  4.64406324092409  2.56187294219422 -1.48770585368537
 6  3.96748601700170  3.77298782248225 -1.01088238253825
 6  2.72819439023902  3.28722657375738 -0.34187294999500
 6  5.92139574487449  2.40201504210421 -2.05928788388839
 6  4.33568918871887  5.21110598639864 -1.07350936433643
 6  6.79055911351135  3.36132181698170 -2.32343682058206
 1 -4.15382986908691  2.12930401050105  0.02954599489949
 1 -4.95553020992099 -0.48407988408841  1.22174691889189
 1 -4.76865370527053  1.03991799149915  2.16469337903790
 1 -2.76831587148715 -1.54906230173017 -0.13535045684568
 1 -3.31720271757176  0.59739165626563 -1.29959751065106
 1  0.15102953765377 -0.06624631263126  3.54523407150715
 1  1.43241725112511 -0.40714538193819  2.43581871467147
 1 -0.73612227312731 -2.85660312531253 -0.34459945764576
 1 -3.26629677497750  1.71569283338334  3.03725371507151
 1 -1.69991120622062  1.63124248814882  3.93052144004400
 1 -1.76447282838284  2.71679549934994  2.75991341314131
 1 -6.89584303520352  2.63873267676768  1.48394062706271
 1 -7.45864563156316  0.81111092029203  1.75794280498050
 1 -8.20163610081008  2.11595767886789  0.65347382758276
 1  1.01778448684868  2.03235527212721  1.65057312461246
 1  0.50783389588959  2.46729355135514  3.30400622482248
 1  1.46282060846085  0.22763340834083 -0.18484384968497
 1  2.05111290349035 -4.88718254865487 -1.80173478317832
 1  0.30620241774177 -4.28591843934394 -1.29401788518852
 1 -8.10037109890989  0.50857108770877 -2.98621455965597
 1  1.50050223912391 -4.57802898259826  1.27405498209821
 1  2.92720899099910 -4.74851205570557  0.58236605150515
 1  4.04213927622762 -4.13067051925193 -2.26507996909691
 1  5.05348644704471 -2.89030788098810 -1.35963958155816
 1  4.51734316741674 -2.61500373297330 -2.98968804240424
 1  4.85796541604160 -0.23619571407141 -1.87385356105611
 1 -9.33956755725573  0.67471492699270 -0.44752744254425
 1 -10.19339747334734  0.28656007170717 -2.20961706170617
 1  3.95012969946995  2.82953633733373  3.31981674737474
 1  6.23274674287429  1.35201735093509 -2.40755957095710
 1  5.33667436723672  5.24812757695770 -0.40407902780278
 1  4.16931895439544  5.48499526522652 -2.07454999989999
 1  3.60600827042704  5.92548215461546 -0.57783952555256
 1  1.44576188428843 -8.19612076917692  1.30136619151915
 1  7.77432987738774  3.18921446134613 -2.72516979027903
 1  6.76896878437844  4.43063857605761 -2.06404875737574

