%nproc=4
%Mem=3GB
# td=(NStates=1) B3LYP/SVP 

TD

0 1
 8 -3.27909481968197 -1.29495455095510 -2.92836349064906
 8  3.30725117991799  3.11874353285328  3.08735300620062
 8  3.67034134233423  1.29316644494449  4.42371681528153
 8  7.67113571647165 -1.53746986118612 -0.72950371217122
 8  6.67324148054805 -3.10273106800680 -1.98186463456346
 8 -2.72460336683668  1.58721421052105  1.34901496199620
 7 -0.34911065726573 -2.38914522882288  0.93954879567957
 7 -2.64367640564056 -1.16633176817682 -0.67628977357736
 7  1.15882743214321  0.13336424612461 -0.63565850305030
 7 -1.01976112161216  1.45342074997500 -0.17113801170117
 6 -3.35825097479748 -1.30251781418142  0.56351332523252
 6 -2.67916654275428 -2.28448259445945  1.55408071487149
 6 -1.21982762446245 -2.03611142514251  1.75743373197320
 6 -0.57566736903690 -1.20848203990399  2.77636565706571
 6  0.73972508510851 -1.05939094009401  2.46120731533153
 6  0.91513419961996 -1.88144457915792  1.26633143714371
 6 -4.67057200380038 -1.89020466916692  0.23133002030203
 6  1.84150874227423 -0.33600392999300  3.15246740124012
 6 -4.78118447984799 -1.97976668506851 -1.10761110161016
 6  2.01584954135414 -1.90987918011801  0.27836011471147
 6  2.07111313321332 -0.89313122532253 -0.64611851335134
 6 -3.52112678257826 -1.42610457575758 -1.78053533693369
 6  2.93254431763176 -0.55924667296730 -1.77617151605161
 6 -1.29687826002600 -0.53500735773577  3.90170567886789
 6 -5.70180540464046 -2.27495397569757  1.31706271187119
 6  2.45468512541254  0.49773714191419 -2.48571318131813
 6  2.05298473087309  1.14468016001600  2.79415605720572
 6  1.36465983248325  0.92435908450845 -1.76167227322732
 6  4.08756410551055 -1.55473490259026 -2.06100573067307
 6 -5.75908024412441 -2.65719781018102 -1.90092354055406
 6  5.27216276727673 -1.22263400860086 -1.11312472937294
 6  3.06763685908591  1.08519692229223 -3.74659116831683
 6  0.67068949304931  2.09099424632463 -1.99160090519052
 6  3.00291893219322  1.92147173267327  3.54961030623062
 6 -0.55100893249325  2.31271590379038 -1.22070735863586
 6 -6.71580550705071 -3.62816658075808 -1.62101065976598
 6  6.54365393499350 -2.04191244634463 -1.34643533353335
 6 -1.46489514431443  3.60359259245925 -1.19537761246125
 6 -2.33128721812181  3.45300577957796 -0.21278918511851
 6 -2.06459873227323  2.16531746524652  0.43465239723972
 6 -1.19548952735274  4.69839609980998 -2.16832860086009
 6 -3.44755539203920  4.33811429432943  0.25556979667967
 6 -1.89783367456746  5.84108952715272 -2.28404213701370
 1 -3.46559505270527 -0.34446993689369  1.20881508610861
 1 -3.00090171657166 -3.22535766076608  1.08134848394840
 1 -2.98125794559456 -2.27097054145415  2.60122951165117
 1 -0.51991729652965 -2.94354311941194  0.08564557455746
 1 -1.95140353005301 -0.37555385888589 -0.64460856325633
 1  1.84146210761076 -0.15033648744874  4.27748984808481
 1  2.90866819971997 -0.87098899019902  2.96372130153015
 1  2.74340315421542 -2.81842342524252  0.20222327552755
 1 -2.00847347664766 -1.13329260326033  4.39728679047905
 1 -0.55065483348335 -0.20839504310431  4.63711006750675
 1 -1.64071338513851  0.30975342204220  3.52954171947195
 1 -5.71216200340034 -1.74328245944595  2.34902919591959
 1 -5.51998075877588 -3.28106221082108  1.46345919221922
 1 -6.70794817161716 -2.34094973837384  0.71266762846285
 1  1.90643678307831  1.15759570147015  1.66280389168917
 1  1.03455340684068  1.64676692099210  3.24674264796480
 1  0.28527678527853  0.24481885168517 -0.12913494579458
 1  4.70238595779578 -1.57813087208721 -3.03535913781378
 1  3.69102993279328 -2.62357413661366 -1.89191629962996
 1 -5.52266440484048 -2.21145206980698 -2.98217168096810
 1  4.97336525782578 -1.54073455335534 -0.11331810811081
 1  5.40690213151315 -0.18000499659966 -0.91047553005301
 1  3.89251916341634  0.41247773987399 -3.90058828832883
 1  3.38470422202220  2.21463254195420 -3.71004333973397
 1  2.33598938823882  0.98830332823282 -4.56625977797780
 1  1.02692660266027  2.61190268676868 -2.77692858485849
 1 -6.76220530663066 -4.09811199509951 -0.71443046424642
 1 -7.48935720062006 -3.96457778827883 -2.26624967846785
 1  3.95496922442244  3.67065642664266  3.64869812401240
 1 -0.64011789058906  4.44606588608861 -3.23158105350535
 1 -3.96916550615062  4.98974555635563 -0.63851500300030
 1 -3.97967671737174  3.85281007460746  1.15480629202920
 1 -2.95310362656266  5.26534682578258  0.80372614251425
 1  8.10176587008701 -2.26015917011701 -0.90661129612961
 1 -2.00644356895690  6.45726618371837 -3.12958781098110
 1 -2.48693104600460  6.15147652345235 -1.47775368286829

