%nproc=4
%Mem=4GB
# td=(NStates=1) B3LYP/SVP 

TD

0 1
 8 -5.21743797379738 -0.03067762816282 -3.21427121682168
 8  3.02600260576058  2.97344459915992  3.15600167856786
 8  3.35240358895890  0.77305270427043  2.81158304340434
 8  1.56958459795980 -7.24186045614561  1.20048855515552
 8  0.38938382638264 -6.86512293589359 -0.66153413631363
 8  1.80315736383638  4.15325844864486 -0.01762225482548
 7 -2.29178878997900 -0.88767719791979  0.62384940154015
 7 -4.25977085848585  0.65079274577458 -1.20182853765377
 7  1.88434882648265 -0.65216678967897 -0.31176965456546
 7  2.47088263016302  1.99080482598260 -0.56199294599460
 6 -4.74236062726273  1.26341783878388  0.09016481628163
 6 -4.30220761356136  0.37760792609261  1.34057141484148
 6 -2.91324642024202  0.05821607830783  1.36737875087509
 6 -1.94209330603060  0.71353631083108  2.14448761836184
 6 -0.66503311361136 -0.04806024152415  1.91657233483348
 6 -1.01460564836484 -1.00185324422442  0.95943776317632
 6 -6.24857721382138  1.35726351565157 -0.19170438583858
 6  0.62871147774777  0.20338101460146  2.65664468456846
 6 -6.53663417791779  0.76502575097510 -1.34688041674167
 6 -0.28172442854285 -1.99007774467447  0.22142422392239
 6  1.08364526072607 -1.90499004560456 -0.30766234843484
 6 -5.21131173147315  0.41227944264426 -2.08550586208621
 6  1.91916600180018 -2.87399793819382 -0.90612762206221
 6 -2.10424612551255  1.76810256715672  3.17879226942694
 6 -7.24357185038504  1.82072020122012  0.82387637353735
 6  3.14679101280128 -2.28373832503250 -1.20262150725073
 6  1.08300432773277  1.64369286268627  2.71661529742974
 6  3.02875095039504 -0.94413303890389 -1.04479846804680
 6  1.59061283148315 -4.38011397579758 -0.92139385628563
 6 -7.88778468446845  0.51793343094309 -1.99135752355236
 6  1.66340390599060 -5.08262919751975  0.44223021852185
 6  4.32603821282128 -2.94947341614161 -1.78595782708271
 6  3.97061793239324  0.10242964646465 -1.42420710311031
 6  2.69393001420142  1.76425401360136  2.89111501140114
 6  3.61695607340734  1.49295470697070 -1.12641920922092
 6 -9.13918890229023  0.68761092139214 -1.52593740904090
 6  1.11221628632863 -6.55633228342834  0.21546020502050
 6  4.47540637523752  2.55007176207621 -1.45794287738774
 6  3.94224349274928  3.73533405710571 -0.99286058035804
 6  2.59333090389039  3.32048990009001 -0.55222398509851
 6  5.84177778307831  2.39324416501650 -2.11126308140814
 6  4.23038865866587  5.21762663846385 -1.05736775017502
 6  6.68752881048105  3.38794447924792 -2.58735321222122
 1 -4.16099058515852  2.13738481858186  0.22319535983598
 1 -4.78857351425142 -0.47868934503450  0.91415615981598
 1 -4.73511035093509  0.75302930263026  2.34021093079308
 1 -3.05197423732373 -1.43357075257526  0.04322740094009
 1 -3.19333033033303  0.55892780988099 -1.62738028892889
 1  0.62299673437344 -0.43436312431243  3.49467901600160
 1  1.46084009340934 -0.18463313071307  2.18421355415542
 1 -0.44729339023902 -2.95060252525252 -0.10943594129413
 1 -3.14506465176518  1.86297756185619  3.52607259695970
 1 -1.87432864796480  1.53068243214321  4.17508589648965
 1 -1.70645702680268  2.87449126892689  2.81077849964996
 1 -6.83648709960996  2.65963476697670  1.40913314631463
 1 -7.37566733373337  1.12222203140314  1.76161317201720
 1 -8.35441137833783  2.17077316041604  0.67688616881688
 1  0.85258796719672  2.20227226382638  1.71355942324232
 1  0.59308242074207  2.20215703770377  3.64841066526653
 1  1.43185751215122  0.33171381638164 -0.36198156345635
 1  2.27135492769277 -4.88280211061106 -1.58334294399440
 1  0.49435123262326 -4.48318816631663 -1.42674115751575
 1 -7.65782684448445  0.04487471807181 -2.94582052025202
 1  1.06965915481548 -4.45669684938494  1.27798537513751
 1  2.64098036813681 -5.17351455595560  0.69791760666067
 1  3.99703476577658 -3.97189464166417 -1.63448690979098
 1  5.25072617101710 -2.55684453465347 -1.27587120472047
 1  4.35353678677868 -2.61410364296430 -2.80583965756576
 1  4.78670829032903 -0.25535763026303 -2.09686586228623
 1 -9.47774137463746  1.11070852635264 -0.55192788258826
 1 -9.99982811641164  0.22272368806881 -2.22581868186819
 1  3.92919760626063  3.08971235493549  3.38099286498650
 1  6.28497196539654  1.28825097429743 -2.09495831083108
 1  5.25872657245725  5.39011177537754 -0.48934755465547
 1  4.09764178667867  5.74274103980398 -1.85616816171617
 1  3.66128379797980  5.68206781318132 -0.37899964156416
 1  1.08966627472747 -7.99915107220722  1.08866492139214
 1  7.69443188758876  3.14660019991999 -2.83854112741274
 1  6.23320520802080  4.46403191539154 -2.67091944444445

