%nproc=4
%Mem=4GB
# td=(NStates=1) B3LYP/SVP 

TD

0 1
 8 -5.49033526352635 -0.12258681908191 -3.26230602030203
 8  3.14157416291629  2.90173742844284  3.19410548894889
 8  3.47179552815282  0.70533593259326  2.94815670077008
 8  1.44287192669267 -7.15459172927293  1.49217772407241
 8  0.59220410841084 -6.85877230083008 -0.64793277617762
 8  1.75351239933993  4.06795991879188 -0.06311680428043
 7 -2.30169978107811 -0.85345377557756  0.51995901250125
 7 -4.31959684108411  0.45977364386439 -1.33140149494950
 7  1.80441083268327 -0.63594516751675 -0.41966044364436
 7  2.47954349624963  2.00747649314932 -0.60935768246825
 6 -4.74554094529453  1.12408390539054 -0.09093329352935
 6 -4.34901229402940  0.39089925522552  1.21077843554355
 6 -2.90676577217722  0.04188444514451  1.34266627962796
 6 -1.91513060976098  0.67838279547955  2.13888705830583
 6 -0.64611122142214  0.06133069756976  1.88196887448745
 6 -0.99731391919192 -0.90809386828683  0.84543636303630
 6 -6.26093844994499  1.31598938823882 -0.13601881728173
 6  0.63712231883188  0.26550722722272  2.56063508360836
 6 -6.66189670417042  0.72689193759376 -1.34693042174217
 6 -0.21224748084808 -1.94337307420742  0.14997707920792
 6  1.02876977317732 -1.78578812541254 -0.31909349154915
 6 -5.45145574587459  0.29518773347335 -2.17645495699570
 6  1.91877596279628 -2.86021656005601 -0.94579158845885
 6 -2.22209791069107  1.70994675157516  3.18922331253125
 6 -7.14709220242024  1.93060118931893  0.88986297219722
 6  3.07149348304830 -2.27603755495550 -1.33928517361736
 6  1.21753778107811  1.65413390679068  2.70346398229823
 6  2.98123619891989 -0.90571919751975 -1.01719570777078
 6  1.51373514371437 -4.29379534393439 -0.98947066396640
 6 -8.03549945594559  0.55765740334033 -1.92252063986399
 6  1.67010457605761 -5.00596153075308  0.35619161466147
 6  4.19933554255426 -2.95006347514751 -1.91584081538154
 6  3.89350022062206  0.18029743324332 -1.37104178657866
 6  2.71054167536754  1.66440402860286  2.86452235213521
 6  3.69051342914291  1.53306871837184 -1.24602116941694
 6 -9.23467845124513  0.51799395969597 -1.29691450675067
 6  1.12575764046405 -6.44050070027003  0.43153181218122
 6  4.68587742234223  2.58519527442744 -1.38236531963196
 6  4.08142741114111  3.78485900960096 -0.87846914121412
 6  2.65614718551855  3.33381123222322 -0.48612737543754
 6  5.86979058435844  2.41215605620562 -2.03300525562556
 6  4.50124574437444  5.18686356215622 -0.90529254265427
 6  6.79922998059806  3.40666635143514 -2.39208368526853
 1 -4.33126761286129  2.15140622072207 -0.15737269696970
 1 -5.10203486038604 -0.63110458655866  1.50363510771077
 1 -4.83175001490149  1.00564456415642  2.09820673037304
 1 -2.73127216711671 -1.45198259375938 -0.08949587138714
 1 -3.50636163346335  0.34613653075308 -1.83737128802880
 1  0.56552098679868 -0.14650433843384  3.58411795989599
 1  1.48879288868887 -0.32754742214221  2.01998713151315
 1 -0.84241290219022 -2.90843830883088  0.09236423872387
 1 -3.16866701200120  1.55948721282128  3.46114610431043
 1 -1.59498071317132  1.52972233613361  4.10485887378738
 1 -2.02838922002200  2.79394321412141  2.82992041384138
 1 -6.59002245314531  2.80673947744774  1.49792202520252
 1 -7.80578034503450  1.19666947614761  1.59362637333733
 1 -7.83052899009901  2.47750383348335  0.38568704890489
 1  0.96725943434343  2.20515255185519  1.69128719601960
 1  0.67676078857886  2.19617643964396  3.42172799699970
 1  1.48409273567357  0.38872951795180 -0.58506387168717
 1  2.14830262246225 -4.89073290369037 -1.69414402410241
 1  0.46513831133113 -4.31617146464647 -1.47813629702970
 1 -7.96107716951695  0.51954218481848 -2.92081802000200
 1  1.27594978387839 -4.46883806350635  1.01997957455746
 1  2.78036430653065 -5.08074527902790  0.72773058795880
 1  4.06964202650265 -4.06640409260926 -2.13683714481448
 1  5.15002610101010 -3.09305815601560 -1.23271688928893
 1  4.66370780388039 -2.58950118271827 -2.87323639723972
 1  4.73563318281828 -0.19734182868287 -1.90928710441044
 1 -9.17196079657966  0.44623207870787 -0.22994568436844
 1 -10.15078321192119  0.59434084978498 -1.92802890289029
 1  4.17413209970997  2.57476085978598  3.24279904560456
 1  6.35779924812481  1.36293844304430 -2.18729754475448
 1  5.29133983378338  5.57856062026203 -0.13119173907391
 1  4.74229625212521  5.73553031873187 -1.99105165006501
 1  3.62376004560456  5.88992859925993 -0.65806754835484
 1  1.02895020312031 -8.01642279937994  1.28121417631763
 1  7.95595804020402  3.36843238313831 -2.72381965526553
 1  6.48491037853785  4.38146365856586 -2.13667602010201

