%nproc=4
%Mem=3GB
# td=(NStates=1) B3LYP/SVP 

TD

0 1
 8 -3.17031394159416 -1.46028108360836 -2.95309596389639
 8  2.75957641244124  3.26877853635364  3.43813808470847
 8  3.71411571977198  1.39825695399540  4.18838328192819
 8  7.56967557045705 -1.82926904110411 -0.53862462426243
 8  6.68890304670467 -2.81224201910191 -2.44861130923092
 8 -2.50566147264726  1.67961345044504  1.49311937243724
 7 -0.22633838003800 -2.35727204150415  0.89852469326933
 7 -2.60606264426443 -1.23627876287629 -0.67936008060806
 7  1.15140669006901  0.05509641934193 -0.77573251045105
 7 -0.96483562906291  1.47255266316632 -0.26149704760476
 6 -3.30787593729373 -1.25379294169417  0.64364133803380
 6 -2.60111873797380 -2.26349049524952  1.62541784858486
 6 -1.20887652935294 -1.98603641764176  1.84777276587659
 6 -0.58531833413341 -1.15682687438744  2.83484150465046
 6  0.78075918851885 -1.13609861086109  2.48076927152715
 6  0.94982766896690 -1.86107254195420  1.23134793879388
 6 -4.63616856345635 -1.78816446514651  0.25273216051605
 6  1.83164775617562 -0.30710103970397  3.24817697219722
 6 -4.68852521392139 -2.01966067446745 -1.10101044154415
 6  2.10776873327333 -1.85381357355736  0.33238551725173
 6  2.09678570047005 -0.96405831803180 -0.68959286078608
 6 -3.44822949284928 -1.52175414071407 -1.77670495389539
 6  2.98245930913091 -0.72721346964696 -1.82931683058306
 6 -1.26855542774277 -0.51455531253125  4.06444195249525
 6 -5.71634685878588 -2.09787626792679  1.17551855745575
 6  2.57306696359636  0.44208157635764 -2.47917252725273
 6  1.73183261566157  1.17858355035504  3.02760940254025
 6  1.31936530303030  0.87001364996500 -1.91771787778778
 6  4.12885823492349 -1.70951038013801 -2.04494412451245
 6 -5.78067240334033 -2.44657674807481 -1.92346579477948
 6  5.37150270127013 -1.18186993219322 -1.17192060896090
 6  3.20021011641164  1.04097249984998 -3.68553506270627
 6  0.47249967406741  2.00311545844584 -2.05875762086209
 6  2.85081372167217  1.91860144564456  3.60539588478848
 6 -0.51387521912191  2.23841847404740 -1.18821410931093
 6 -6.82650657715772 -3.24341810591059 -1.58768732743274
 6  6.62762233183318 -2.03530178527853 -1.44868555855586
 6 -1.43626228102810  3.53160539373937 -1.13491156585659
 6 -2.28830291969197  3.34526500550055 -0.19738764496450
 6 -1.87590986338634  2.06940787428743  0.43378231023102
 6 -1.31733171157116  4.50439669986999 -2.24910667866787
 6 -3.45672630913091  4.27517800070007  0.24875911561156
 6 -2.05645953715372  5.75228064626463 -2.22857659045905
 1 -3.36377487068707 -0.36736222612261  1.13471767636764
 1 -2.86171779817982 -3.28832395739574  1.01465181428143
 1 -3.18050787058706 -2.41035447984798  2.71965135383538
 1 -0.46442174697470 -2.73820258535854 -0.04539752975298
 1 -1.91973036273627 -0.58138444194419 -0.64062816521652
 1  1.43800176157616 -0.51384283808381  4.24762686178618
 1  2.67954528742874 -0.77268916021602  2.84641957135714
 1  2.82796161006101 -2.53010459335934  0.12744579777978
 1 -1.93229585888589 -1.32430170417042  4.42050911271127
 1 -0.63680344834483 -0.39413361696170  4.76408276477648
 1 -1.83662297609761  0.36281872857286  3.62991175647565
 1 -5.44593538073807 -1.31540967216722  2.03563785678568
 1 -5.42364112481248 -3.26759086368637  1.71991483778378
 1 -6.64675205200520 -1.80241588498850  0.73480984268427
 1  1.92142828222822  1.34320426232623  1.78905651695170
 1  0.84271422292229  1.70453269756976  3.32811078477848
 1  0.32881113871387  0.32690706050605 -0.21189322162216
 1  4.57109282848285 -1.67917097609761 -3.11995759765977
 1  4.03601443124312 -2.59918169736974 -1.82545965396540
 1 -5.55180731913191 -1.98087901250125 -2.91081454525453
 1  5.05575349664967 -1.16521700160016 -0.17016379267927
 1  5.62735417671767 -0.16069306540654 -1.42937742024202
 1  3.97534744624462  0.33090958305831 -4.17116534603460
 1  3.73734948654866  2.13494457315731 -3.51775411081108
 1  2.33315910521052  1.07111160906091 -4.51080423242324
 1  0.64687859785979  2.81540303680368 -2.89904079607961
 1 -7.18526761286129 -3.36036822072207 -0.35668468966897
 1 -7.58317658255826 -3.65447677817782 -2.28442149564957
 1  3.42570629812981  3.67360672167217  3.82706596079608
 1 -0.60952483128313  4.34207548704870 -3.08408630403040
 1 -4.17333592319232  4.61140772257226 -0.56593774527453
 1 -4.04808355805581  3.77706249984999  1.02323313471347
 1 -2.88747706390639  5.14944523562356  0.51184695459546
 1  8.26911260476048 -2.41702485668567 -0.86085672067207
 1 -1.87102002660266  6.58138859595960 -3.17777262946295
 1 -2.38410076297630  6.26039741554155 -1.23853976147615

