%nproc=4
%Mem=4GB
# td=(NStates=1) B3LYP/SVP 

TD

0 1
 8 -5.38258448844884 -0.11745630603060 -3.20345013471347
 8  3.19056906240624  2.77376463116312  3.11951803020302
 8  3.39625797439744  0.58791419041904  2.98539042414241
 8  1.74984262376238 -7.26062233233323  1.43168167446745
 8  0.49592448044804 -6.93107953155315 -0.35835381828183
 8  1.53828087618762  3.89518264106411 -0.02486297889789
 7 -2.32491210231023 -0.98769719991999  0.61826884348435
 7 -4.39209409080908  0.52405007150715 -1.25465382018202
 7  1.80879127072707 -0.75399697269727 -0.52563104070407
 7  2.41988753065307  1.88250399589959 -0.56036278297830
 6 -4.70621701290129  1.16405790279028  0.01095689548955
 6 -4.34050144294430  0.37950811611161  1.23764112181218
 6 -2.84638973457346  0.01841209790979  1.36596860986099
 6 -1.94955405210521  0.71066602380238  2.09170233983398
 6 -0.73449005930593  0.00325488998900  1.85587626522652
 6 -0.94636882468247 -1.04255731463146  0.84097591699170
 6 -6.30310266636664  1.37540532983298 -0.17119233463346
 6  0.56950555715572  0.15915659215922  2.51190021012101
 6 -6.72180269476948  0.80653990239024 -1.39016474517452
 6 -0.05313156925693 -2.06828556545655  0.25411749324932
 6  1.15887278347835 -1.94317386398640 -0.25410699289929
 6 -5.45144574487449  0.28729694439444 -2.08814612611261
 6  2.01257534273427 -2.89883042144214 -0.94409141844184
 6 -2.16177187808781  1.83896965386539  3.05616000620062
 6 -7.11118861206121  2.22365049424943  0.83700768666867
 6  3.22075840954095 -2.33706365756576 -1.35349659475948
 6  1.22743877117712  1.49878837223722  2.66165980188019
 6  3.00432850815081 -0.88190681628163 -1.04725871407141
 6  1.73486725692569 -4.37852381678168 -0.93772548944894
 6 -8.00444635063506  0.89043068066807 -2.09289767756776
 6  1.80363792939294 -5.08062899749975  0.47278327382738
 6  4.34155976497650 -2.94227269606961 -1.95381461276128
 6  3.85077594819482  0.14034343784378 -1.44198888128813
 6  2.78141876307631  1.56177376557656  2.88807470737074
 6  3.60570494829483  1.58810422192219 -1.16602316961696
 6 -9.22755773917392  1.01385354565457 -1.43181799709971
 6  1.19252431713171 -6.50509715991599  0.42101076007601
 6  4.52653148774878  2.62845960086009 -1.43289037213721
 6  3.84936420482048  3.77442796649665 -1.02263355765577
 6  2.49807137793779  3.30777862896290 -0.49258802150215
 6  5.89272287758776  2.63798863946395 -2.02753470857086
 6  4.16968258805881  5.27318219401940 -0.87399941334133
 6  6.64209426702670  3.67009269406941 -2.42071654855486
 1 -4.41349583568357  2.03654473457346  0.03343638393839
 1 -4.89095375227523 -0.51534301040104  1.13639838403840
 1 -4.55161200110011  1.12781678137814  2.23843075277528
 1 -2.94096313621362 -1.69509690519052 -0.08409533133313
 1 -3.37022802010201  0.55840775787579 -1.57054460536054
 1  0.84944937963796 -0.55949563756376  3.57236678477848
 1  1.27299130853085 -0.52097676507651  2.05477060986099
 1 -0.72424108500850 -2.79803726872687 -0.02624762246225
 1 -3.32325247054705  1.83073433753375  3.35691568126813
 1 -1.90270148524852  1.63187255115512  4.12069045694570
 1 -1.89941632273227  2.75416923672367  2.75922334413441
 1 -6.35694914581458  2.73419222272227  1.45193742674267
 1 -7.66143591059106  1.55314512371237  1.50179719041904
 1 -7.34481041824182  3.16204228732873  0.04882336253625
 1  1.12383509190919  2.25389742634263  1.61794986228623
 1  0.64884799729973  2.17467428942894  3.34689051325133
 1  1.40746507290729  0.29233987898790 -0.37061242654265
 1  2.41295908810881 -4.94331816221622 -1.68656326602660
 1  0.69305110261026 -4.41831167866787 -1.29570805420542
 1 -7.99399046084608  0.85180541114111 -3.13849978817882
 1  1.02073426232623 -4.52254343404340  1.15934351095110
 1  2.77207347744775 -5.03606081058106  1.07618543344334
 1  4.13376843914391 -4.05429288148815 -1.96788024912491
 1  5.15098619701970 -2.81981083128313 -1.32564618221822
 1  4.29582101520152 -2.41378361096110 -2.94627370097010
 1  4.94440405990599 -0.00892298679868 -1.96664283998400
 1 -9.32674627512751  1.00800825632563 -0.23286597639764
 1 -10.04965309890989  1.00157157285729 -1.98036413641364
 1  4.09774446094610  2.88436181988199  3.24100886658666
 1  6.29342281048105  1.62210435963596 -2.17884669966997
 1  5.11673237303730  5.41811457565757 -0.48030665056506
 1  4.31912393489349  5.55688245394539 -1.98650119501950
 1  3.24507217681768  5.87087669406941 -0.45604734633463
 1  1.28270557865787 -8.12740389748975  1.49651570647065
 1  7.72821526592659  3.34563010291029 -2.65070234353435
 1  6.38664055155516  4.75167067926793 -2.49974232673267

