--Link1--
#n CAM-B3LYP/6-31G(d,p) Opt Freq=savenormalmodes

lutein-s0-geom-freq

  0  1
O,-13.952723775510204,-2.1128534081632653,1.0754
O,14.691266224489794,1.0197955918367347,0.86452
C,-11.773473775510205,0.24963659183673473,1.25389
C,-10.927023775510206,0.14457659183673474,-0.04757
C,-11.916243775510205,-1.1523634081632654,1.86844
C,-12.530213775510205,-2.1927034081632653,0.93788
C,-11.427883775510205,-0.9635034081632652,-0.96249
C,11.132516224489795,0.011895591836734743,1.77176
C,-11.091893775510204,1.1743865918367347,2.26695
C,-13.147673775510205,0.8441165918367348,0.91177
C,12.486636224489795,0.7347455918367348,1.86555
C,-12.114223775510204,-2.005723408163265,-0.49472
C,13.446236224489795,0.3458255918367347,0.75562
C,10.624756224489795,-0.015854408163265256,0.31983
C,-9.452493775510204,-0.06660340816326525,0.19295
C,12.843346224489794,0.7377255918367348,-0.57577
C,11.395496224489795,0.33734559183673474,-0.72701
C,10.146206224489795,0.7638255918367348,2.68346
C,11.261356224489795,-1.4323744081632652,2.29074
C,-11.068163775510206,-0.8301934081632653,-2.41432
C,-8.493453775510204,0.7747365918367348,-0.2086
C,9.229486224489795,-0.4731244081632653,0.15365
C,10.917446224489796,0.4250755918367347,-2.15241
C,-7.053113775510204,0.6054865918367348,-0.01628
C,8.826666224489795,-1.4488144081632652,-0.67281
C,-6.582003775510204,-0.6402344081632653,0.68052
C,7.441196224489796,-1.8995544081632654,-0.86244
C,-6.227933775510204,1.5745755918367346,-0.47027
C,7.289136224489796,-3.363834408163265,-1.17983
C,6.409386224489796,-1.0342544081632654,-0.76483
C,-4.7857237755102044,1.6228555918367347,-0.388
C,4.998446224489796,-1.3323744081632654,-0.87293
C,-4.060723775510204,2.6597355918367347,-0.84814
C,-2.6033137755102045,2.7828455918367347,-0.82344
C,4.044496224489796,-0.38356440816326526,-0.79782
C,2.6092062244897956,-0.5944044081632652,-0.89271
C,-2.0883837755102044,4.197565591836734,-0.76916
C,-1.8054937755102043,1.6911055918367346,-0.86322
C,1.7933362244897957,0.48416559183673474,-0.80704
C,2.1149162244897957,-2.0016644081632653,-1.0853
C,-0.36563377551020426,1.6554655918367347,-0.79468
C,0.3548262244897958,0.5169555918367348,-0.88019
H,-11.034123775510205,1.0965565918367346,-0.58487
H,-12.530293775510206,-1.1071134081632654,2.77338
H,-10.926723775510204,-1.5065834081632654,2.17868
H,-12.204893775510206,-3.191063408163265,1.27103
H,-10.124653775510206,0.7848565918367348,2.59381
H,-10.919443775510205,2.1668765918367345,1.83828
H,-11.724893775510205,1.2974765918367346,3.15111
H,-13.679783775510204,0.24759659183673474,0.17153
H,-13.777223775510205,0.8867765918367347,1.80507
H,-13.035063775510205,1.8645365918367347,0.5302
H,12.335936224489796,1.8192355918367347,1.80471
H,12.933656224489795,0.5307155918367348,2.84741
H,-12.429743775510206,-2.7847034081632653,-1.18966
H,13.607126224489795,-0.7426644081632652,0.76925
H,-9.181753775510204,-0.9871134081632652,0.70541
H,13.431086224489794,0.3054655918367347,-1.39382
H,12.940576224489796,1.8268055918367347,-0.6844
H,9.207156224489795,0.22141559183673473,2.81415
H,9.918246224489796,1.7576855918367347,2.28699
H,10.587046224489795,0.8918455918367347,3.67695
H,12.006796224489795,-2.0003344081632655,1.728
H,10.309326224489794,-1.9614844081632654,2.20011
H,11.553356224489795,-1.4373944081632652,3.34617
H,-9.987693775510206,-0.7050034081632652,-2.53722
H,-11.540713775510206,0.05846659183673474,-2.84833
H,-11.384173775510204,-1.7011734081632652,-2.99243
H,-14.349473775510205,-2.6505534081632653,0.37969
H,8.480496224489794,-0.012004408163265258,0.7937
H,-8.791263775510204,1.6859865918367347,-0.72654
H,11.333406224489796,-0.38795440816326526,-2.75912
H,9.832966224489795,0.3892855918367347,-2.24056
H,11.275736224489796,1.3581455918367347,-2.60221
H,15.094026224489795,0.7661355918367347,1.70315
H,9.584456224489795,-1.9924644081632654,-1.23592
H,-5.498313775510204,-0.6850744081632653,0.77611
H,-7.008873775510204,-0.7039634081632652,1.68683
H,-6.909163775510204,-1.5335434081632653,0.13856
H,-6.690713775510204,2.4320955918367346,-0.95699
H,7.588296224489796,-3.981844408163265,-0.32605
H,6.272096224489796,-3.6399144081632655,-1.45668
H,7.946216224489796,-3.6399544081632653,-2.01164
H,6.651616224489796,0.013525591836734742,-0.59917
H,-4.266353775510204,0.7936455918367348,0.08288
H,4.704386224489796,-2.3674444081632653,-1.01408
H,-4.600313775510204,3.5162655918367345,-1.25287
H,4.360486224489796,0.6486255918367347,-0.65248
H,-1.0093337755102043,4.267525591836734,-0.90127
H,-2.3448037755102042,4.6694055918367345,0.1856
H,-2.5584637755102047,4.799995591836734,-1.55383
H,-2.2881137755102046,0.7223355918367348,-0.97459
H,2.2703662244897957,1.4536155918367346,-0.669
H,2.4458962244897955,-2.6435044081632655,-0.26245
H,1.0291062244897957,-2.062374408163265,-1.13848
H,2.5188962244897954,-2.430264408163265,-2.00829
H,0.17071622448979576,2.5914455918367345,-0.66056
H,-0.18168377551020423,-0.41930440816326525,-1.01094

