%NProcShared=4
%Chk=lutein-s0-geom.chk
#n CAM-B3LYP/6-31G(d) Opt

 lutein-s0-geom

0 1
O         14.38414       -1.90055        0.03838
O        -15.04712        0.59960       -0.78076
C         11.93097       -0.34233       -1.23896
C         11.16500        0.29298       -0.02391
C         12.17320       -1.84000       -0.94186
C         13.01985       -2.06076        0.32752
C         11.79324       -0.07424        1.31545
C        -11.29984        1.06288       -0.93682
C         11.11365       -0.20060       -2.54479
C         13.27186        0.40497       -1.46141
C        -12.80267        1.46097       -0.84413
C         12.63614       -1.12522        1.45559
C        -13.69214        0.23450       -0.76898
C        -10.92477       -0.06959        0.06272
C          9.70189       -0.10673        0.04594
C        -13.38606       -0.48748        0.54145
C        -11.90512       -0.72239        0.78444
C        -10.50893        2.36755       -0.66143
C        -10.95926        0.57946       -2.36603
C         11.43974        0.76575        2.51749
C          8.71337        0.79996       -0.06816
C         -9.45395       -0.40625        0.15883
C        -11.64578       -1.67517        1.93480
C          7.25887        0.45720       -0.00588
C         -8.95228       -1.63722        0.40564
C          6.85019       -0.98957        0.19848
C         -7.49644       -2.00123        0.45841
C          6.37325        1.47727       -0.13913
C         -7.16922       -3.46070        0.68748
C         -6.49896       -1.08953        0.31605
C          4.88899        1.36726       -0.11033
C         -5.05218       -1.43113        0.36517
C          4.12796        2.46981       -0.25980
C          2.62842        2.51274       -0.25441
C         -4.11612       -0.47578        0.21850
C         -2.64337       -0.73787        0.25316
C          1.98579        3.86854       -0.44561
C          1.85988        1.40531       -0.08858
C         -1.81778        0.32683        0.09064
C         -2.14866       -2.15646        0.46377
C          0.37303        1.42450       -0.08180
C         -0.33083        0.29444        0.08828
H         11.23252        1.39632       -0.16130
H         12.64419       -2.37248       -1.79755
H         11.18119       -2.31440       -0.78190
H         12.83970       -3.11933        0.62815
H         10.14356       -0.73718       -2.47837
H         10.90533        0.86923       -2.76261
H         11.67208       -0.63120       -3.40404
H         13.90612        0.41823       -0.55321
H         13.84750       -0.06054       -2.29039
H         13.08376        1.46768       -1.72733
H        -12.99433        2.05684        0.07846
H        -13.07728        2.10262       -1.71091
H         13.08212       -1.32716        2.42546
H        -13.48594       -0.45048       -1.62129
H          9.46972       -1.15476        0.19501
H        -13.92370       -1.46032        0.50029
H        -13.77957        0.08500        1.41055
H         -9.41753        2.25637       -0.80554
H        -10.69070        2.72179        0.37624
H        -10.82678        3.16968       -1.36308
H        -11.49846       -0.35469       -2.62300
H         -9.87217        0.37192       -2.46447
H        -11.22371        1.35391       -3.11797
H         10.34401        0.73128        2.69111
H         11.74274        1.81779        2.33456
H         11.94677        0.41377        3.44131
H         14.88924       -2.38671        0.74186
H         -8.76030        0.37643       -0.07802
H          8.98815        1.84165       -0.21547
H        -12.00923       -2.69255        1.67895
H        -10.60115       -1.71531        2.28633
H        -12.20723       -1.31639        2.82331
H        -15.27178        0.83565       -1.71873
H         -9.64251       -2.45944        0.53769
H          5.76450       -1.17310        0.23439
H          7.25286       -1.60483       -0.63337
H          7.27018       -1.35676        1.15833
H          6.77333        2.47912       -0.28247
H         -6.58491       -3.85726       -0.16968
H         -6.58202       -3.57514        1.62318
H         -8.08277       -4.08355        0.78697
H         -6.72769       -0.04488        0.15891
H          4.42313        0.40972        0.02842
H         -4.75200       -2.45971        0.51968
H          4.64086        3.41810       -0.39859
H         -4.44961        0.54838        0.06465
H          1.36420        4.12158        0.43926
H          1.35092        3.86210       -1.35681
H          2.74052        4.67355       -0.56757
H          2.31855        0.43584        0.04878
H         -2.27202        1.30520       -0.05375
H         -2.53193       -2.80375       -0.35270
H         -1.05322       -2.27450        0.47819
H         -2.52616       -2.53600        1.43637
H         -0.16058        2.36026       -0.21621
H          0.21527       -0.62932        0.22099

