%NProcShared=8
%Chk=phycocyanobilin-s0-geom-freq.chk
%Mem=5GB
#n B3LYP/SVP Opt Freq=savenormalmodes

 phycocyanobilin-s0-geom-freq

0 1
O         -4.51981       -4.72834        1.88661
O          2.93409       -4.83530        1.29095
O          7.05630       -1.51549        1.84705
O          3.75205       -3.13912        0.08182
O          7.61279       -0.60671       -0.12482
O         -3.01631        2.47647       -0.24065
N         -0.28634       -0.57636       -0.59337
N          1.55355        1.79601       -0.37356
N         -3.43122       -3.12880        0.63570
N         -0.74550        2.92587       -0.10952
C          0.64717       -2.46581       -1.36855
C          0.93041       -1.14066       -0.94406
C         -0.74729       -2.67102       -1.25737
C         -1.30925       -1.47332       -0.74483
C          3.79088        1.42462       -0.34837
C          2.49324        0.80632       -0.57470
C          2.19983       -0.50887       -0.87762
C          3.57218        2.74941       -0.00275
C          1.63775       -3.46776       -1.89738
C         -5.58770       -2.57032        1.34988
C         -3.63987       -1.84874        0.11231
C          2.13796        2.96543       -0.02548
C         -5.05866       -1.52434        0.37316
C          5.10540        0.70256       -0.43009
C         -2.67067       -1.07179       -0.45556
C         -1.50136       -3.87481       -1.74681
C         -4.49625       -3.64421        1.34888
C          2.04444       -4.55818       -0.89075
C          5.42154       -0.14985        0.80842
C          4.57289        3.80702        0.34759
C          1.34831        4.10569        0.24874
C         -6.97950       -3.14584        1.09376
C         -5.81438       -0.56204       -0.19593
C         -0.04943        4.04319        0.20387
C         -0.96949        5.18914        0.49399
C         -2.22594        4.70907        0.34635
C          2.99113       -4.07431        0.18646
C         -5.42340        0.43854       -1.23969
C          6.80458       -0.75778        0.75818
C         -3.56149        5.36754        0.48230
C         -2.08511        3.24834       -0.03881
C         -0.50746        6.56132        0.86935
C         -4.22372        5.67662       -0.87176
H         -0.43438        0.33309       -0.16415
H          3.04956       -1.17051       -1.04501
H          2.54679       -2.96354       -2.25523
H          1.20126       -3.97126       -2.77560
H         -5.56372       -2.15549        2.37767
H          5.12678        0.05188       -1.31898
H          5.92060        1.42601       -0.57802
H         -2.89917       -0.01446       -0.61080
H          0.51709        1.83801       -0.49534
H         -1.52516       -4.70861       -1.02101
H         -2.54433       -3.62262       -1.98628
H         -1.04115       -4.27839       -2.66304
H         -2.53296       -3.59760        0.62856
H          1.17109       -5.02520       -0.41185
H          2.57696       -5.37354       -1.41416
H          4.70602       -0.97987        0.92393
H          5.34855        0.44539        1.73464
H          4.44559        4.70471       -0.28067
H          5.60445        3.45199        0.21404
H          4.46676        4.13421        1.39643
H          1.84253        5.04041        0.51201
H         -7.76331       -2.38982        1.25096
H         -7.16467       -3.98197        1.78467
H         -7.06827       -3.52208        0.06249
H         -6.85714       -0.51613        0.13962
H         -4.92140        1.31861       -0.80160
H         -6.31154        0.79494       -1.78359
H         -4.71510        0.01235       -1.96826
H         -3.47011        6.29393        1.07344
H         -4.22239        4.68928        1.04908
H          0.12556        6.54029        1.77288
H         -1.35488        7.23319        1.06773
H          0.09932        7.01488        0.06687
H         -3.61602        6.38173       -1.46137
H         -5.22077        6.12343       -0.72806
H         -4.34405        4.75577       -1.46215
H          3.59718       -4.48857        1.91375
H          7.95766       -1.86439        1.73763

