%NProcShared=4
%Chk=phycocyanobilin-s0-geom.chk
#n CAM-B3LYP/6-31G(d) Opt

 phycocyanobilin-s0-geom

0 1
O         -5.10644       -3.47415        2.82702
O          0.83289       -2.34024        3.81014
O          7.29748       -1.63346        1.46126
O          2.85484       -2.06847        2.91245
O          7.40045       -1.27915       -0.73414
O         -3.08532        3.26270       -0.23333
N         -0.28377       -1.24813       -0.78563
N          1.53206        1.30224       -0.67993
N         -3.66233       -2.82401        1.23079
N         -0.79457        3.11788       -0.55631
C          0.75255       -2.96404        0.20848
C          0.91740       -1.70277       -0.36723
C         -0.60846       -3.25842        0.14042
C         -1.22177       -2.15590       -0.45760
C          3.72441        0.88693       -0.93261
C          2.46284        0.32175       -0.71357
C          2.22672       -1.00374       -0.54748
C          3.52090        2.25897       -1.07271
C          1.84116       -3.86335        0.76516
C         -5.98216       -2.60847        0.76177
C         -3.73175       -2.27021       -0.06602
C          2.15757        2.47949       -0.90356
C         -5.17416       -2.07671       -0.40257
C          5.04647        0.15112       -1.01564
C         -2.64954       -1.92573       -0.80254
C         -1.23105       -4.57339        0.52650
C         -4.90052       -3.02140        1.71145
C          1.73841       -4.05923        2.28531
C          5.48182       -0.38648        0.36093
C          4.55090        3.32808       -1.33052
C          1.56372        3.69659       -0.95003
C         -6.86292       -3.79964        0.37169
C         -5.77107       -1.54575       -1.49559
C          0.11490        3.99716       -0.77573
C         -0.47056        5.36055       -0.83402
C         -1.79314        5.23609       -0.63647
C          1.84836       -2.75329        3.02278
C         -5.08279       -0.99027       -2.70324
C          6.79259       -1.12793        0.31640
C         -2.85607        6.30867       -0.59213
C         -2.01513        3.80589       -0.45481
C          0.31739        6.61981       -1.07484
C         -3.88692        6.10708       -1.69885
H         -0.49787       -0.36993       -1.29902
H          3.08679       -1.65221       -0.55171
H          2.84672       -3.44825        0.56815
H          1.79553       -4.84607        0.24995
H         -6.59998       -1.80013        1.21004
H          4.95767       -0.66679       -1.76268
H          5.85026        0.82322       -1.36840
H         -2.78377       -1.38593       -1.72139
H          0.52506        1.18351       -0.49107
H         -1.17042       -4.74421        1.61731
H         -2.28957       -4.63703        0.21206
H         -0.70318       -5.39356       -0.00281
H         -2.80967       -3.00319        1.77595
H          0.78701       -4.55326        2.55214
H          2.56155       -4.72689        2.61911
H          4.72216       -1.07326        0.78107
H          5.59057        0.47139        1.05940
H          4.30738        3.85426       -2.27707
H          5.57938        2.93534       -1.41511
H          4.53951        4.05892       -0.49511
H          2.19272        4.56074       -1.13438
H         -7.63358       -3.48784       -0.36371
H         -7.38339       -4.19572        1.26945
H         -6.24927       -4.61188       -0.07506
H         -6.85681       -1.51075       -1.51424
H         -4.45888       -0.11671       -2.42202
H         -5.84275       -0.63982       -3.43281
H         -4.47376       -1.77775       -3.19427
H         -2.42343        7.31983       -0.71073
H         -3.36116        6.27083        0.39635
H          1.07898        6.73297       -0.27561
H         -0.30910        7.53034       -1.08392
H          0.83083        6.54707       -2.05600
H         -3.39533        6.16139       -2.69371
H         -4.65736        6.90444       -1.63837
H         -4.39250        5.12435       -1.59556
H          0.87791       -1.50367        4.29445
H          8.13593       -2.11658        1.47385

