%nproc=4
%Mem=2GB
# td=(NStates=1) B3LYP/SVP 

TD

0 1
 6 -5.09658250875088 -2.05601540754075  0.42286091119112
 6 -4.61756791499150  2.75992622162216  1.24682135823582
 6 -9.25137438103810  3.40290648694869 -0.20013462966297
 6 -9.82520437153715 -1.39236083068307 -0.88124426982698
 7 -5.13669041704170  0.40778723982398  0.81513897189719
 6 -4.44007210481048 -0.76918590219022  0.83667975357536
 6 -2.98638039173917 -0.60074055755576  1.29254250365037
 6 -2.95186933933393  0.85631074867487  1.83446795219522
 6 -4.33063802190219  1.35963300870087  1.27917982938294
 6 -2.94622112001200  0.94709301030103  3.36900675867587
 6 -2.11617696049605 -0.87357237133713  0.09415602330233
 6 -0.63545193329333 -0.62219107390739  0.37091485658566
 6  0.36119062496250 -0.92012893019302 -0.68232408960896
 8  0.00167990389039 -1.43367305720572 -1.73979643424342
 8  1.63143821902190 -0.72343876237624 -0.33350834283428
 7 -6.95585876687669  2.75601034293429  0.50533112711271
 6 -5.90082426342634  3.29715644814481  0.98505263066307
 6 -6.04421569406941  4.75719380318032  1.03173472517252
 6 -7.30855391989199  5.02316363936394  0.40321555165517
 6 -7.88070352075208  3.71402000090009  0.10606194249425
 6 -5.08247740414041  5.79366314871487  1.54857086098610
 6 -8.02993958215822  6.26812653035303  0.22366742104210
 6 -8.87585510831083  6.62659194979498 -0.77417603390339
 7 -9.08999239853985  0.90621909650965 -0.55056203160316
 6 -9.81455323272327  2.12228553025303 -0.39797860856086
 6 -11.17317355535554  1.98392203170317 -0.83709778107811
 6 -11.37956339683968  0.70723476487649 -1.01221128272827
 6 -10.08642535093509  0.01218416901690 -0.80401388178818
 6 -12.16988118531853  3.14948751785179 -0.96344077317732
 6 -12.71997209460946 -0.03738283668367 -1.28472070707071
 6 -12.76119058865887 -0.42326697309731 -2.91104828922892
 7 -7.42986611231123 -1.29853416791679 -0.17541388648865
 6 -8.56143212871287 -2.10500711491149 -0.61124805320532
 6 -8.25327893509351 -3.41594619611961 -0.60489422792279
 6 -6.83615564376438 -3.44802068636864 -0.28383048834883
 6 -6.41854039363936 -2.05403720282028  0.04534668876888
 6 -9.04261824692469 -4.46151955195520 -1.07551005780578
 6 -5.77628374987499 -4.39447467436744 -0.08449577997800
 8 -5.79953180928093 -5.59221573027303 -0.17883096269627
 6 -4.57655325992599 -3.44854196689669  0.50889613921392
 6 -4.10271268606861 -3.94105780098010  1.84440632593259
 8 -4.39350196189619 -3.43147410331033  2.87597806180618
 8 -3.32492500820082 -5.05226550785079  1.62142788578858
 6 -2.81150468076808 -5.80794169946995  2.73645011531153
 6  2.66341638503850 -1.02131082168217 -1.33714792009201
 6  3.97303141294129 -0.75746036943694 -0.66341295449545
 6  5.05512781298130 -0.14845579797980 -1.16823222782278
 6  5.02383289348935  0.54862870457046 -2.58978151715171
 6  6.31008472057206  0.13590621892189 -0.37737920102010
 6  7.53981820902090 -0.61402073517352 -0.96056340974097
 6  8.75643912091209 -0.24854006090609 -0.20908578847885
 6  10.04015587028703 -0.74128861146115 -0.92475345524552
 6  10.06328012141214 -2.23942910871087 -1.15974008870887
 6  11.17286796139614 -0.25011468206821 -0.00322279027903
 6  12.59395798039804 -0.60996947534753 -0.61516939413941
 6  13.75603201040104 -0.00352305540554  0.20778714131413
 6  15.24335615671567 -0.12945598139814 -0.31581541734173
 6  15.63510083768377 -1.62916707860786 -0.51757149264926
 6  16.22559515671567  0.73075398659866  0.52507577197720
 6  17.59775661436144  0.93076881078108 -0.06659116691669
 6  18.59679953095309  1.73124174317432  0.77572626552655
 6  20.01796169206921  1.71938756405641  0.33639640004000
 6  20.07836876637664  2.28174760596060 -1.12955936493649
 6  20.82386285188519  2.67873160926093  1.19391579227923
 1 -3.87063523112311  3.37490387468747  1.70868310661066
 1 -9.90557814281428  4.18447788428843 -0.25408408230823
 1 -10.88645698559856 -1.94771078107811 -1.17929782368237
 1 -2.88862491399140 -1.48672903700370  2.17238903360336
 1 -2.13440400800080  1.43314326542654  1.38746824522452
 1 -1.91228874477448  0.62127954965497  3.65039176447645
 1 -2.85913921422142  1.87843248684868  3.84770387158716
 1 -3.75758633803380  0.24503520582058  3.84337318301830
 1 -2.19400885478548 -1.88595247294729 -0.29041589788979
 1 -2.39757569616962 -0.01178370407041 -0.54268292899290
 1 -0.46420074347435  0.25858998489849  0.87087311781178
 1 -0.37217022992299 -1.41537071707171  1.06628374737474
 1 -3.81980663806381  5.42429056665667  1.26446958495850
 1 -5.39319053785379  6.92781790049005  0.99377497449745
 1 -5.17023880088009  6.04642449184919  2.73850491109111
 1 -7.79078917781778  6.92127916161616  1.07129843614361
 1 -8.91093648644864  6.06815480098010 -1.89362875887589
 1 -9.21307558675868  7.59188447374737 -0.69639934403440
 1 -12.25729027642764  3.68111861036104 -0.13831623022302
 1 -11.84507342964297  3.88018298299830 -1.72633985148515
 1 -13.27894529452945  2.74560017821782 -1.24863791069107
 1 -12.69146397229723 -0.99107923422342 -0.68401297509751
 1 -13.60212095439544  0.59511917331733 -1.16148982628263
 1 -12.82882739773977  0.50035705080508 -3.51640048344834
 1 -11.87179338703871 -1.00113951035103 -3.11465226192619
 1 -13.61629970317032 -0.91407876597660 -3.06191004970497
 1 -9.98369591639164 -4.53947603950395 -0.48532433633363
 1 -9.48546045624562 -4.36648366186619 -2.13450397099710
 1 -8.54300600610061 -5.52779355925593 -0.92524717821782
 1 -3.86090181748175 -3.68396574787479 -0.27847090689069
 1 -2.11632850085008 -6.69305590929093  2.30057576157616
 1 -1.93980055175518 -5.27152689168917  3.17844229452945
 1 -3.64429548494850 -6.20260726072607  3.36891841204120
 1  2.40299209100910 -2.01292803390339 -1.50016715001500
 1  2.26092793569357 -0.40556199419942 -2.23799141844184
 1  3.93386482238224 -1.14582265276528  0.36990603500350
 1  5.47036230073007  1.71566926472647 -2.36562915031503
 1  5.78380534433443 -0.07514155895590 -3.20938400550055
 1  4.14884136933693  0.57272007790779 -2.96425178207821
 1  6.46931702880288  1.40414355825583 -0.35922112251225
 1  6.07791561736174 -0.07716330163016  0.75424511861186
 1  7.38739939303930 -1.77442148754875 -0.88388323442344
 1  7.48538828992899 -0.44405890129013 -2.20936979467947
 1  8.72650709230923  0.72982083358336  0.03557481598160
 1  8.91294402430243 -0.72079916691669  0.82885573847385
 1  9.94685155045505  0.00545074337434 -1.76893761666167
 1  9.13912109970997 -2.56716537933793 -1.72367159265927
 1  11.05031189218922 -2.66773845024502 -1.57411315691569
 1  9.90597903970397 -2.77628950645065 -0.24546806830683
 1  11.21409559965997  0.87640526432643  0.07004046664667
 1  11.16239380878088 -0.66129461496150  1.06836735843584
 1  12.74402091009101 -1.55521940094009 -0.89104254705471
 1  12.83479379597960 -0.19260653355336 -1.51850516901690
 1  13.63154418991899  1.11443183898390  0.35483065716572
 1  13.90042487798780 -0.65432838683868  1.05668524472447
 1  15.50901239863986  0.66478967876788 -1.29872652245225
 1  15.02087748274828 -2.35668395219522 -1.23960798129813
 1  16.62368910521052 -1.58498433793379 -0.86453784638464
 1  15.51490420802080 -2.15512513111311  0.42689539083908
 1  15.80285747734773  1.74707779647965  0.54190803440344
 1  16.09464578727873  0.38637244634463  1.58944094089409
 1  18.21639771707171 -0.15122360096010 -0.23469815451545
 1  17.42517524292429  1.23509647274727 -1.14329163376338
 1  18.10437214311431  2.67727645534553  0.70146664166417
 1  18.55375839003900  1.27539637643764  1.83451470707071
 1  20.54649287908791  0.74325505920592  0.40682361946195
 1  19.55236793399340  3.22077420952095 -1.07633260746075
 1  21.08471698889889  2.44073967776778 -1.46831215461546
 1  19.63594182998300  1.52759279587959 -1.68133331453145
 1  20.93701871497150  2.15671522182218  2.09203313111311
 1  21.82045588728873  2.68185630223022  0.91413331313131
 1  20.14951261396140  3.58830850135014  1.58041064546455
 1 -7.00574435693569  1.78668294029403  0.54522777957796
 1 -7.58423979057906 -0.25673054865487  0.00684736453645

