%nproc=4
%Mem=2GB
# td=(NStates=1) B3LYP/SVP 

TD

0 1
 6 -5.10254310481048 -1.89348915491549  0.46700532563256
 6 -4.77388354655466  2.79054928392839  1.34094077017702
 6 -9.36887613121312  3.30963716001600 -0.28083269946995
 6 -9.85218706980698 -1.43060465506551 -0.86045219061906
 7 -5.23628037603760  0.40437689878988  0.72107956595660
 6 -4.40040813841384 -0.67692667626763  0.67314339993999
 6 -2.97600935463546 -0.48067855135514  1.09687293669367
 6 -3.08234238663866  0.88888400600060  1.71105561096110
 6 -4.41257621572157  1.44506155155516  1.17119903130313
 6 -3.03198969686969  0.93614191519152  3.22320217821782
 6 -2.06262160496050 -0.69782479657966 -0.07176056835684
 6 -0.64044243234323 -0.57205606040604  0.36797456255626
 6  0.32747725362536 -0.76913383068307 -0.79387524472447
 8 -0.05164542864286 -0.98480817071707 -1.97179963456346
 8  1.62600767596760 -0.70241666016602 -0.39268426042604
 7 -7.07148032903290  2.76559130103010  0.41146174017402
 6 -5.93029721072107  3.39372610511051  1.01661578697870
 6 -6.29893116561656  4.85839392319232  1.14048560026003
 6 -7.63446651115112  4.99397072007201  0.68087331743174
 6 -8.05156060646065  3.65646424532453  0.26319765606561
 6 -5.35926508290829  5.85311909430943  1.83464946884688
 6 -8.22450903910391  6.26659637733773  0.40950600490049
 6 -9.34956247904790  6.61612090269027 -0.31421003730373
 7 -9.13234663396340  0.87023549814981 -0.53345032043204
 6 -9.78779055645565  2.14108741044104 -0.53978278897890
 6 -11.17172341034103  1.84645828532853 -1.04094816611661
 6 -11.37460290079008  0.55113915531553 -1.14351441304130
 6 -10.00458716711671 -0.07957500690069 -0.93357683808381
 6 -12.23314751195119  3.01447401650165 -1.08683311241124
 6 -12.51249134653465 -0.32206130453045 -1.60012224722472
 6 -12.54075854545455 -0.73867851425142 -3.02665985038504
 7 -7.52226535223522 -1.31555587008701 -0.17027337243724
 6 -8.56170215571557 -2.14237085128513 -0.47245417381738
 6 -8.15280888808881 -3.51406600810081 -0.55318905740574
 6 -6.79624165236524 -3.41824770907091 -0.15989809510951
 6 -6.45216375597560 -2.07633943304330  0.08497065116512
 6 -8.95408939403940 -4.65984938493849 -0.87550005680568
 6 -5.68277439893989 -4.33195842274227  0.18443111271127
 8 -5.54297615371537 -5.53840034873487  0.11577849824982
 6 -4.40894649924992 -3.32469958265827  0.38550379998000
 6 -3.65522793759376 -3.70999469466947  1.67532941824182
 8 -3.81240385208521 -3.17951890779078  2.79926039003900
 8 -3.06655917161716 -4.88232851415142  1.50703644664466
 6 -2.34143767406741 -5.44263516881688  2.71278774907491
 6  2.60719076247625 -1.06868555915592 -1.30332453775378
 6  3.97264137393739 -0.66870149354935 -0.72154876807681
 6  5.02351465166517  0.01464051165116 -1.28022342694269
 6  4.85771628182818  0.66822066376638 -2.53493603260326
 6  6.31570528262826  0.23789641794179 -0.41497296039604
 6  7.46213044024402 -0.43341267436744 -1.06910426382638
 6  8.78472194919492 -0.17360256715672 -0.22316719661966
 6  10.02935479017902 -0.80390487308731 -0.78091907180718
 6  9.97088088148815 -2.32905807160716 -0.81235535023502
 6  11.27378805340534 -0.38577824842484 -0.01211367936794
 6  12.68381696629663 -0.67549602800280 -0.54101197839784
 6  13.78029443664366 -0.00471317441744  0.32556891949195
 6  15.25809763086309 -0.33234627042704 -0.31145498129813
 6  15.54244157175718 -1.75209937183718 -0.34045378087809
 6  16.25073767096710  0.47179809100910  0.44383764816482
 6  17.60483732243224  0.52637837173717 -0.11281578937894
 6  18.53944379537954  1.37944656365637  0.75534422732273
 6  20.02547244314431  1.59277490279028  0.10592335273527
 6  20.05847677717772  2.52956238743874 -1.21162757175718
 6  20.76255672127213  2.23076681278128  1.37772417311731
 1 -4.06380454805481  3.54584096839684  2.09662190049005
 1 -9.97266485148515  4.04941437793779 -0.10312898679868
 1 -10.73958229812981 -2.07966397639764 -1.21317121102110
 1 -2.87219327082708 -1.25946631073107  1.87999979467947
 1 -2.37621818941894  1.54514446554655  1.25551504990499
 1 -2.23141065696570  0.88819624132413  3.63668039333933
 1 -3.27838113841384  1.96610125372537  3.62379148034803
 1 -3.86196677607761  0.24533523582358  3.59318816451645
 1 -2.02231168506851 -1.63174705240524 -0.52317917421742
 1 -2.34324026262626  0.01272874717472 -0.84169282998300
 1 -0.39343366676668  0.51500562646265  0.81231726222622
 1 -0.43062607550755 -1.08843802380238  1.34083120212021
 1 -4.51626628402840  6.16395453305330  1.16625976397640
 1 -5.96802802160216  6.76376149484949  1.97608320532053
 1 -4.95771754875488  5.27946779617962  2.88200926152615
 1 -7.78515861476148  7.22153918761876  0.82122342864286
 1 -9.82680807360736  6.08031601710171 -1.09567896389639
 1 -9.58407268646865  7.66726201150115 -0.33810351445145
 1 -12.06409095649565  3.56405690419042 -0.14264666326633
 1 -12.01480040234024  3.65516048074808 -1.66841405890589
 1 -13.18685608560856  2.44629024722472 -1.19914296119612
 1 -12.52122694859486 -1.15711583788379 -0.85433000680068
 1 -13.26346708900890  0.25163482488249 -1.23722740004000
 1 -12.62024653965397  0.23089010411041 -3.40257910131013
 1 -11.61106731443144 -1.31576097249725 -3.43800459715972
 1 -13.50487856105611 -1.06312367046705 -3.47923178187819
 1 -10.02978052485249 -4.63420551245124 -0.23487929182918
 1 -9.08093000320032 -4.86468348184819 -1.82435295589559
 1 -8.62049375487549 -5.56746752665267 -0.31893654715471
 1 -3.63963969126913 -3.31351870317032 -0.53817687748775
 1 -1.47220408840884 -6.09095569926993  2.32918862286229
 1 -1.90970754245425 -4.76031577057706  3.41567601790179
 1 -3.01852290769077 -6.00993799379938  3.26232775297530
 1  2.53647543934393 -2.24929167026703 -1.76810394369437
 1  2.25947779067907 -0.67031846984698 -2.18704632393239
 1  3.91333276917692 -0.91427949844985  0.42342138653865
 1  5.27741300580058  1.76716441424142 -2.63778636603660
 1  5.57002396619662  0.08822477767777 -3.23870693779378
 1  3.71523800900090  0.78420122602260 -2.99450480738074
 1  6.47119721682168  1.30571371527153 -0.49291449184919
 1  6.29492731853185 -0.00817640294029  0.53035272937294
 1  7.27123777687769 -1.52198624402440 -1.27176202230223
 1  7.65213496459646 -0.05199969536954 -2.25231408910891
 1  8.94961940354035  0.90667851935193 -0.28010675217522
 1  8.58820155005501 -0.37380446744675  1.00485333823382
 1  10.39248611391139 -0.44393419511951 -1.85789651255126
 1  9.22479966756676 -2.72593125592559 -1.39791901740174
 1  10.93647050805081 -2.87965964236424 -1.21541728732873
 1  9.89220766256626 -2.92106398389839  0.16470294879488
 1  11.01605579567957  0.69415703950395  0.32711617421742
 1  11.23583115251525 -0.71333981948195  0.99994051575157
 1  12.87601410941094 -1.66067994699470 -0.73333677647765
 1  12.69517983458346 -0.12499977287729 -1.59249256775678
 1  13.60767180268027  1.19866026182618  0.26000117421742
 1  13.66691152665267 -0.24715766976698  1.36795637183718
 1  15.28508000540054  0.03195639543954 -1.27513416321632
 1  14.74846024102410 -2.36399468326833 -0.67298131863186
 1  16.34380111641164 -2.00541638113811 -1.12594398699870
 1  15.71726444404440 -2.08482810141014  0.61867456875688
 1  15.69239643124312  1.50554364306431  0.62828667226723
 1  16.51922824552456 -0.02404859575958  1.55734773157316
 1  18.01914799209921 -0.56213469206921 -0.54195888058806
 1  17.29451217661766  0.98682164526453 -1.07512481708171
 1  17.93432513841384  2.36020474817482  0.67521401640164
 1  18.81762477667767  0.95601443824382  1.71012226782678
 1  20.36743497329733  0.50458119181918 -0.41354841774177
 1  19.84407710491049  3.46292842494250 -0.59755472967297
 1  20.99956847404740  2.76502210601060 -1.45297062046205
 1  19.62166040184018  1.80541057765777 -2.03789897109711
 1  20.77253226632664  1.43860341064107  2.27241116891689
 1  21.79805364706471  2.35647376397640  0.92882478227823
 1  20.44864252695270  3.23946361686169  1.50716332073207
 1 -7.16333011551155  1.77935220722072  0.19636289308931
 1 -7.67187855445545 -0.23553842944294 -0.26538985918592

