%nproc=4
%Mem=2GB
# td=(NStates=1) B3LYP/SVP 

TD

0 1
 6 -5.13935678617862 -1.92387219321932  0.40718934403440
 6 -4.77192335053505  2.85876610561056  1.34028070417042
 6 -9.46308555215522  3.34316051235123 -0.17995261146115
 6 -9.88318016911691 -1.45160675527553 -0.85079122452245
 7 -5.18828557655766  0.50655711681168  0.77810526852685
 6 -4.50498859645965 -0.69103808740874  0.66237232283228
 6 -3.15101685538554 -0.46048653215322  1.12441569096910
 6 -3.16348050045004  0.92476759435944  1.74666917231723
 6 -4.45982094019402  1.48731577697770  1.30391230263026
 6 -2.94329082698270  1.10522882388239  3.25054491249125
 6 -1.99626496929693 -0.66334134823482  0.10753736143614
 6 -0.59145753385339 -0.77980683548355  0.65668343344334
 6  0.35610011591159 -1.00848776607661 -0.48322417961796
 8 -0.04553481758176 -1.23692338223822 -1.63824627922792
 8  1.63892896809681 -0.90156657515752 -0.05879087108711
 7 -7.06014919591959  2.82195693759376  0.39963055705571
 6 -6.05080926192619  3.38401513401340  0.94088821422142
 6 -6.47210848334833  4.82304038783878  1.01456300800080
 6 -7.64929799429943  4.99558088108811  0.50952618271827
 6 -8.22370782118212  3.67272587148715  0.21529286558656
 6 -5.51892104850485  5.82427621002100  1.61756776067607
 6 -8.39410599879988  6.26383610131013  0.40097515181518
 6 -9.38198572137214  6.62431172177218 -0.43896251255125
 7 -9.25709910921092  0.92012048664866 -0.44885186058606
 6 -9.98082986038604  1.95829913161316 -0.39359817051705
 6 -11.37910414841484  1.79809344884488 -0.89158322962296
 6 -11.48426386688669  0.42696673807381 -1.11236129772977
 6 -10.17871457985799 -0.20177722712271 -0.74395787618762
 6 -12.39213341054105  2.83789635873587 -1.09065349444945
 6 -12.70319041644164 -0.26226532493249 -1.58658089308931
 6 -12.70539500910091 -0.53775842224222 -3.03264044844484
 7 -7.50947407310731 -1.24345866036604 -0.10994733983398
 6 -8.54737072257226 -1.91816843104310 -0.54612154055406
 6 -8.26009961716172 -3.40750535203520 -0.71856559505951
 6 -6.82917494569457 -3.40018590289029 -0.29343144844484
 6 -6.42751129072907 -2.10344214331433  0.05499765386539
 6 -9.08608259335933 -4.54725812581258 -0.95204771157116
 6 -5.63619974147415 -4.28676390329033 -0.08080541094109
 8 -5.55614747084709 -5.57579408810881 -0.21209428902890
 6 -4.53061866646665 -3.32154926762676  0.21637688728873
 6 -3.75710812561256 -3.76952064726473  1.57054894019402
 8 -4.00994360606061 -3.28380933683368  2.65986645064506
 8 -2.79840235593559 -4.74238451975198  1.36026176917692
 6 -1.93958748904890 -5.24576548184818  2.39220569086909
 6  2.74871491489149 -1.05405409600960 -1.06525073037304
 6  4.04125823562356 -0.63396802020202 -0.51620823402340
 6  4.97681998219822  0.06364541214121 -1.08963436803680
 6  4.91735224542454  0.68328216991699 -2.45077761676168
 6  6.30167387948795  0.34325695399540 -0.34437590069007
 6  7.60837506470647 -0.42673200630063 -0.97627498089809
 6  8.89755323232323 -0.11055626252625 -0.17188206810681
 6  10.14245610031003 -0.64268875147515 -0.77653863376338
 6  10.08177197059706 -2.18648381418142 -0.96947106180618
 6  11.36190686528653 -0.20768043864386  0.02281981398140
 6  12.76767535213521 -0.60935941434143 -0.52921079827983
 6  13.85638204540454 -0.04046674977498  0.35854221682168
 6  15.28209003010301 -0.28885192099210 -0.22613644944494
 6  15.60718804640464 -1.80376453835384 -0.24846458195820
 6  16.29965256245625  0.62522343354335  0.54518778317832
 6  17.72655949464946  0.44629036293629 -0.12842735053505
 6  18.65612546354635  1.43040165916592  0.61099979287929
 6  20.10017991389139  1.47793341864186  0.10110287068707
 6  20.42488341784178  1.84017344854485 -1.44041045004500
 6  21.03852431803180  2.35906964306431  1.03772017271727
 1 -4.18735690329033  3.56234261856186  2.05392763106311
 1 -10.18419600460046  4.12135157165717 -0.48669734363436
 1 -10.60054839473947 -2.16975298529853 -1.12290218411841
 1 -2.77430348184818 -1.26808717281728  1.90189198389839
 1 -2.52468303590359  1.45643559465947  1.20215971437144
 1 -1.89922743864386  0.77287470917092  3.34677140244024
 1 -3.56326962726273  2.18401304490449  3.54677377857786
 1 -3.51838241764176  0.27651835413541  3.71191003670367
 1 -2.31952140604060 -1.68703258095810 -0.20648750505051
 1 -2.12958889748975  0.02896037033703 -0.78388704940494
 1 -0.16385070847085  0.06245037093709  1.12280831133113
 1 -0.26913992689269 -1.65483466346635  1.34786190519052
 1 -4.69945460286029  5.85724386198620  0.99812295029503
 1 -6.15156637543754  6.93615873457346  1.62561815881588
 1 -5.29462123912391  5.50410025942594  2.65426648724872
 1 -8.09968006690669  6.85618265196520  1.27879918621862
 1 -10.01232662546255  6.09377736323632 -1.11341073707371
 1 -9.89762404160416  7.65787107240724 -0.54373407750775
 1 -12.64019856725673  3.21341183968397 -0.03856625522552
 1 -12.03028195049505  3.52061702640264 -1.79924714221422
 1 -13.30568796879688  2.42673829202920 -1.44704775167517
 1 -12.79534436033603 -1.03121324762476 -1.02709728352835
 1 -13.51904264656466  0.16115577697770 -1.15093877117712
 1 -12.61971648664866  0.27564457955796 -3.62953179657966
 1 -11.79971617931793 -1.33266266266627 -3.23297409410941
 1 -13.63032110531053 -1.22992035013501 -3.54449830853085
 1 -9.57690523732373 -4.61923401530153  0.11427562366237
 1 -9.84484639483948 -4.06929394289429 -1.79982050265026
 1 -8.46222792829283 -5.56440722062206 -1.17327198069807
 1 -3.87318304560456 -3.24438178947895 -0.59429248904891
 1 -0.83141000900090 -5.64569117281728  1.85892159615962
 1 -1.68099467116712 -4.36915665466547  3.24562901320132
 1 -2.57382843824382 -6.05534253425343  3.01022254245425
 1  2.90359215101510 -2.14131087218722 -1.34288142144214
 1  2.50663250615062 -0.38764020202020 -2.03367098639864
 1  4.15417685358536 -1.01626969746975  0.54052309670967
 1  5.26725198969897  1.70860855865587 -2.60957354475448
 1  5.40255721952195 -0.09343338813881 -3.07091015811581
 1  3.83593007820782  0.75474828072807 -3.00036539343934
 1  6.55542563966397  1.53484662856286 -0.27541274167417
 1  6.14089191499150  0.33761817651765  0.70153984808481
 1  7.35377603070307 -1.58257230263026 -0.80095494159416
 1  7.55293504460446 -0.14550904630463 -1.98210706840684
 1  8.73923836543654  0.94606245774577 -0.11970071157116
 1  8.66492922282228 -0.32135922292229  0.80118297119712
 1  10.04324118941894 -0.31832163386339 -1.77171789468947
 1  9.21486867446745 -2.23641230403040 -1.77135636113611
 1  11.07824468546855 -2.55726740314031 -1.39297504310431
 1  9.89432787458746 -2.87691956945695 -0.17744126562656
 1  11.20234442454245  0.94296191999200  0.32024548714871
 1  11.20514808420842 -0.67421590709071  0.98129865156516
 1  12.94047055505551 -1.61863574257426 -0.41527497029703
 1  12.81302161876187 -0.24109138203820 -1.41596491499150
 1  13.69197023252325  1.12894329012901  0.49475464956496
 1  13.93095793129313 -0.34759771377138  1.36897647384738
 1  15.28592008940894 -0.03550035023502 -1.21854850465046
 1  14.77906330133013 -2.46011429522952 -0.68875289578958
 1  16.57053378967897 -1.67330316981698 -0.84088548114812
 1  15.61893461106111 -2.20138975757576  0.82883558485849
 1  15.92579977157716  1.66191928062806  0.37281112471247
 1  16.28459478217822  0.46695050415041  1.68839083588359
 1  18.17738381568157 -0.68500697929793 -0.21714639933993
 1  17.75990871627163  0.61573453655365 -1.19133643824382
 1  18.11912361826183  2.39514824252425  0.68044453945395
 1  18.79819283348335  1.24101293809381  1.84617587318732
 1  20.46179440924093  0.49777051075108  0.15797873497350
 1  20.08260095729573  2.83266539863986 -1.53083805800580
 1  21.44816333353335  1.62555815961596 -1.59103442684268
 1  19.70461869766977  1.24037407400740 -2.19933511471147
 1  21.20912592569257  2.13363291359136  2.07304123192319
 1  22.04956879857986  2.44665278187819  0.53697559735974
 1  20.77335499819982  3.46549622012201  0.88291089548955
 1 -7.15306908940894  1.81839611161116 -0.09445618881888
 1 -7.68178954555456 -0.15935081068107 -0.07581090129013

