%nproc=4
%Mem=2GB
# td=(NStates=1) B3LYP/SVP 

TD

0 1
 6 -5.12687553805381 -1.94704451045105  0.42778140324032
 6 -4.63782994119412  2.66174640364036  1.32761943804380
 6 -9.36393563716372  3.34202039833983 -0.15232984918492
 6 -9.85757760886089 -1.49963155775578 -1.02023816921692
 7 -5.16413316131613  0.46256271737174  0.71945940394039
 6 -4.52135023262326 -0.79873885748575  0.75339142474247
 6 -3.01293304700470 -0.59654013751375  1.19382263166317
 6 -2.92943709610961  0.85788090569057  1.72707721312131
 6 -4.42488744684468  1.33634067946795  1.26303821522152
 6 -2.80424692259226  1.01447974897490  3.29851970997100
 6 -2.05594093689369 -0.92987800190019  0.06813342104210
 6 -0.60980936903690 -0.86723557835784  0.54414217931793
 6  0.39651415731573 -1.16403332063206 -0.59154501170117
 8  0.17378711461146 -1.56839652955296 -1.65985844044404
 8  1.63844892009201 -0.92939935843584 -0.08682367436744
 7 -7.05939912091209  2.73326806870687  0.45487608160816
 6 -5.97823200420042  3.36102283478348  0.98090221562156
 6 -6.26960823332333  4.75006309010901  1.11211276297630
 6 -7.59718278277828  4.94292561556156  0.67946317641764
 6 -8.09856530693069  3.65732433133313  0.25786712301230
 6 -5.26603575997600  5.75924970737074  1.49988599249925
 6 -8.26531311951195  6.24005372307231  0.54356941124112
 6 -9.30857838063806  6.60542983358336 -0.37363597989799
 7 -9.17139053835383  0.90091856645665 -0.64863183858386
 6 -9.89703148054805  2.03198650035004 -0.57992680338034
 6 -11.32773901190119  1.85450909040904 -0.91981605290529
 6 -11.43951939243924  0.53424746614661 -1.20107016861686
 6 -9.98719542794280 -0.08845589498950 -1.02361584198420
 6 -12.36545074227423  2.96420898999900 -1.11612604170417
 6 -12.66441653905390 -0.18810790919092 -1.76736897189719
 6 -12.75165963556356 -0.41985663206321 -3.16868405280528
 7 -7.50581370707071 -1.34779909440944 -0.47674401950195
 6 -8.62127811331133 -2.03058967316732 -0.69998692709271
 6 -8.12522612981298 -3.41734633613361 -0.64064780328033
 6 -6.89402143034303 -3.38178406270627 -0.14423652895290
 6 -6.40834937453745 -2.07604940404040 -0.07394524042404
 6 -9.07173115821582 -4.68687208720872 -0.88046055285529
 6 -5.73702982448245 -4.25346057295730  0.10395306490649
 8 -5.74926678277828 -5.51660816951695  0.03423034343434
 6 -4.50553615821582 -3.35940305300530  0.43676892649265
 6 -4.03960637543754 -3.83226692189219  1.76186807210721
 8 -4.27301991369137 -3.15918687458746  2.76130659465947
 8 -3.06573908960896 -4.75720600190019  1.57061280428043
 6 -2.61440497079708 -5.35538644394439  2.89636610691069
 6  2.76010605400540 -0.99604829542954 -1.07433163846385
 6  4.06377048684868 -0.72947757115712 -0.47545415861586
 6  4.95875817601760  0.24199324692469 -0.96881228582858
 6  4.81542205240524  1.15439928162816 -2.25498803780378
 6  6.30671438353835  0.38464109240924 -0.17896936003600
 6  7.54476870407041 -0.21343067616762 -0.96446379977998
 6  8.80704418141814 -0.04682988988899 -0.15156003590359
 6  10.09553140784078 -0.52936741934193 -0.88357933783378
 6  9.93077687108711 -2.01214638043804 -1.30660477517752
 6  11.28802947754775 -0.25988565916592  0.01044857685769
 6  12.65124370897090 -0.40830930933093 -0.67743562076208
 6  13.81231763896390  0.14488178507851  0.20702706530653
 6  15.21528334943494 -0.21847488328833 -0.39071290709071
 6  15.51426875447545 -1.70103426532653 -0.23532326782678
 6  16.24742733993400  0.60255116631663  0.41753501790179
 6  17.69565640434043  0.53002873677368 -0.16278078587859
 6  18.76190604160416  1.31345996499650  0.57856654955496
 6  20.21503139903990  1.42679830513051  0.18835159555956
 6  20.34596552605261  2.00743017421742 -1.27580398939894
 6  21.07168763436344  2.25093882998300  1.02394879557956
 1 -3.94380254785479  3.36688307260726  1.82641487978798
 1 -10.03590117511751  4.10869030553055 -0.24737341124112
 1 -10.52918125802580 -2.24906091609161 -1.46485637953795
 1 -2.77984403590359 -1.40092045614561  2.09252104680468
 1 -2.22445301290129  1.33895384648465  1.34393389178918
 1 -1.64154167006701  0.46294371607161  3.48841556685669
 1 -2.83122642294229  2.07146178977898  3.67934703590359
 1 -3.44756533593359  0.34963566586659  3.73857270297030
 1 -2.04979443334333 -1.85801967966797 -0.26880373667367
 1 -2.34845078367837 -0.17566009170917 -0.82502116281628
 1 -0.31958628202820  0.16358048394839  0.80849688018802
 1 -0.50470348324832 -1.31083026302630  1.65071219021902
 1 -4.42544720212021  6.04616275387539  0.59190232823282
 1 -5.82590380918092  6.59476459515952  1.52509810681068
 1 -4.64406618361836  5.59585943534353  2.45494655525553
 1 -8.04417451635164  6.96819385308531  1.19043034933493
 1 -9.45249064186419  5.86960494599460 -1.32608200420042
 1 -9.72314659385939  7.64835012031203 -0.34969467356736
 1 -12.13022757015701  3.78899939843984 -0.24872727132713
 1 -12.10387931023102  3.52312727742774 -1.96444366186619
 1 -13.41453885388539  2.49966558475848 -1.17387043394339
 1 -12.62181700760076 -1.21590171647165 -1.24962953675368
 1 -13.58907965026503  0.10681034243424 -1.06899057635764
 1 -12.89349386438644  0.52611962706271 -4.01989083248325
 1 -11.74405061276128 -0.87154655105511 -3.48833963066307
 1 -13.70948902210221 -1.07175453355335 -3.51358521722172
 1 -9.62350989778978 -4.77401949384938  0.06291048714871
 1 -9.69978188838884 -4.52136915041504 -1.79151967256726
 1 -8.26393809930993 -5.49686046594659 -0.94897955145515
 1 -3.71720744804480 -3.17237458875888 -0.27952101190119
 1 -1.68028489648965 -6.04959156285629  2.69927563156316
 1 -2.14721129282928 -4.57347708670867  3.57397184748475
 1 -3.43926498189819 -6.02925992599260  3.27826934713471
 1  2.82031382318232 -2.06000274137414 -1.41282841614161
 1  2.32856469936994 -0.36973841184118 -1.79106672597260
 1  4.31507294319432 -1.19088715921592  0.39182822722272
 1  5.11944720922092  2.20237793559356 -1.98277086448645
 1  5.32990995479548  0.68983493869387 -3.10181324842484
 1  3.77691417661766  1.03677648354835 -2.64851020792079
 1  6.57463756085608  1.47804094799480  0.03535833543354
 1  6.43133095889589 -0.15465105040504  0.72368206230623
 1  7.43388404150415 -1.24676872227223 -1.22002684878488
 1  7.66673642474248  0.42280778537854 -1.88388724642464
 1  8.76857129872987  1.05141299279928  0.14035529402940
 1  8.53932666256626 -0.63439052605261  0.82267512041204
 1  10.13920078537854 -0.01373117481748 -1.86737746064606
 1  9.05129231683168 -2.05868453125313 -1.90613983948395
 1  10.76432329332933 -2.23672534893489 -1.88168391399140
 1  9.87474591639164 -2.82304418191819 -0.49486300780078
 1  11.22135632573257  0.88272589638964  0.47093055565557
 1  11.02105967536754 -0.88341682718272  1.11004152585258
 1  12.77221372937294 -1.45091897089709 -0.98608205100510
 1  12.69296961356136  0.11624435153515 -1.70029334783478
 1  13.65241627712771  1.36942733853385  0.36779195329533
 1  13.82798763426343 -0.21842479647965  1.22735231143114
 1  15.40944244164417  0.25542874267427 -1.46623327312731
 1  14.71754714971497 -2.27848613241324 -0.65427944844484
 1  16.55417215351535 -2.08968480798080 -0.59892128472847
 1  15.19398211581158 -1.85448506710671  0.95462816411641
 1  16.05314250585058  1.63413650235024  0.36384022762276
 1  16.19514583728373  0.29838364746475  1.53138513531353
 1  18.20789686698670 -0.56805528412841 -0.27579226392639
 1  17.81690441584158  0.85945890899090 -1.31565887048705
 1  18.61682338823882  2.50765949364937  0.69125562056206
 1  18.73836685088509  0.86982581938194  1.50326158175818
 1  20.63597182698270  0.40577131083108  0.13473641074107
 1  20.11269396659666  3.10700283238324 -1.24965994019402
 1  21.24412292949295  1.86050165396540 -1.74304962836284
 1  19.69659789558956  1.40774081068107 -1.94392957415742
 1  20.92577759085909  1.88107765806581  2.05118904670467
 1  22.03806764846485  2.22543065966597  0.62764466426643
 1  20.81314897759776  3.15447511801180  1.00578318271827
 1 -7.14971875437544  1.69560383238324  0.24401765856586
 1 -7.49211057765777 -0.35135001060106 -0.54180750095009

