%nproc=4
%Mem=2GB
# td=(NStates=1) B3LYP/SVP 

TD

0 1
 6 -5.21975482598260 -2.00314012001200  0.36113473857386
 6 -4.63821998019802  2.62408263726373  1.45910258635864
 6 -9.15546479007901  3.45285148144814 -0.15889050525053
 6 -9.81590344144414 -1.30950254485449 -0.93486963236324
 7 -5.10168691669167  0.35383184428443  0.79392685068507
 6 -4.54418251585159 -0.83560254385439  0.81692777837784
 6 -3.05349710341034 -0.78117860136014  1.22451570097010
 6 -3.04115826822682  0.77872298989899  1.87158166356636
 6 -4.32452741084108  1.29191623702370  1.26550846224622
 6 -3.02190868876888  0.80180848184818  3.38660851885188
 6 -2.13258860166017 -0.86455146924692  0.03761036873687
 6 -0.63941232933293 -0.91464031883188  0.57224498959896
 6  0.35858036393639 -1.15267218451845 -0.54712056925693
 8  0.09162889878988 -1.49338902880288 -1.67210966556656
 8  1.59914498969897 -1.07249366786679 -0.14470946294629
 7 -6.90062324332433  2.79546428832883  0.39356995099510
 6 -5.79543372437244  3.39301603410341  1.01145527092709
 6 -5.98464973747375  4.83531161496150  1.04793634533453
 6 -7.28829189368937  5.11188251125113  0.50941617171717
 6 -7.93574902530253  3.74286288518852  0.24567590389039
 6 -4.98980813721372  5.89034281668167  1.40686669056906
 6 -7.81510809900990  6.36848656635664  0.29926498079808
 6 -8.89145666846685  6.57483677427743 -0.58363697999800
 7 -9.18544194349435  0.94671314591459 -0.58289526492649
 6 -9.81305308270827  2.18045134683468 -0.46886569726973
 6 -11.18558479647965  2.05649928942894 -0.85964003530353
 6 -11.34737017751775  0.70824486588659 -1.13270333193319
 6 -10.13657036543654 -0.00100715011501 -0.90478395879588
 6 -12.15025922312231  3.17238980808081 -0.93921835093509
 6 -12.62744284168417 -0.03774287268727 -1.58110034503450
 6 -12.53252772237224 -0.40388503490349 -3.14729191359136
 7 -7.52029515521552 -1.17936225072507 -0.40422676777678
 6 -8.60640662616262 -1.97227384158416 -0.77787471587159
 6 -8.25212882008201 -3.32163676517652 -0.74338807730773
 6 -6.95066709490949 -3.34501038533853 -0.27759986528653
 6 -6.43113165276528 -2.04665646474647 -0.10206805270527
 6 -9.27052103720372 -4.43403680368037 -1.00192269906991
 6 -5.90723684518452 -4.37374260116012  0.10372304190419
 8 -5.92974483058306 -5.56383289198920  0.04671159155916
 6 -4.67971357595759 -3.50828794149415  0.42750800040004
 6 -4.05263767856786 -3.85256895209521  1.74027591289129
 8 -4.09355196689669 -3.40113106900690  2.87820828482848
 8 -3.19893240894089 -4.91102138343834  1.54868061106111
 6 -2.59097262756276 -5.54168507380738  2.73027949824982
 6  2.64253429682968 -1.34243293389339 -1.11547575287529
 6  3.92641675147515 -0.98587321072107 -0.52791940514051
 6  4.96464876507651 -0.14437538993899 -1.00215562016202
 6  4.81137164736474  0.54614845654565 -2.29976251525153
 6  6.23995770787079  0.16344897319732 -0.36217768086809
 6  7.39717394459446 -0.58990832393239 -0.94711206460646
 6  8.69888336533653 -0.33168837573757 -0.22101698159816
 6  9.98878073277328 -0.90548503110311 -0.83946492639264
 6  9.97615140854085 -2.39167433323332 -1.08735284998500
 6  11.26886756135614 -0.34016368696870  0.02151968396840
 6  12.66540512511251 -0.52896137453745 -0.64712258945895
 6  13.86866327352735  0.01680897779778  0.25758212081208
 6  15.21581340244024 -0.07873090889089 -0.43985782158216
 6  15.71459878747875 -1.51924608650865 -0.62658239373937
 6  16.19335193239324  0.61788269946995  0.46874013841384
 6  17.66932377107711  0.89991572547255 -0.06378088588859
 6  18.57179703070307  1.79366798579858  0.77054574747475
 6  19.99829972587259  1.93924955025503  0.13420618101810
 6  20.02745367486749  2.64870430163016 -1.29645605460546
 6  20.95897636323632  2.71509524562456  1.04922132283228
 1 -3.78106627422742  3.37517390169017  1.70547278557856
 1 -10.06820440544054  4.09794923142314  0.02035336143614
 1 -10.60116845674568 -1.87002301230123 -1.25349524342434
 1 -2.76144219571957 -1.56827719181918  1.91572336703670
 1 -2.10793136073607  1.51451140224022  1.61249074747475
 1 -2.08119563546355  0.31897931963196  3.87328405370537
 1 -3.35220852115211  1.94427907150715  3.71374047524752
 1 -3.81912249164917  0.35148585088509  3.89599844554455
 1 -2.35085453935394 -1.62833671137114 -0.56171302760276
 1 -2.35340127872787 -0.10084260996100 -0.58586724742474
 1 -0.25142946634663 -0.08501437553755  1.08595462596260
 1 -0.56743975687569 -1.66826600660066  1.22355947494749
 1 -4.10608526592659  5.90296843444344  0.64629776777678
 1 -5.27187840664066  6.71852697139714  1.38131372837284
 1 -4.67267904490449  5.64746459585959  2.43425448604861
 1 -7.41422152105210  7.21549858355835  0.94222552885289
 1 -9.35999139193919  5.89190717621762 -1.25696509250925
 1 -9.56960123932393  7.59556484178418 -0.63120282438244
 1 -12.23534808220822  3.83139363786379 -0.06079847844784
 1 -11.78877780008001  3.72477744244424 -1.90553777127713
 1 -13.20844824482448  2.92124774297430 -1.25387843474347
 1 -12.64349917581758 -0.96857698399840 -1.05574014781478
 1 -13.56612735503550  0.66842650405041 -1.54571824912491
 1 -12.58857337233723  0.34117113221322 -3.92540138353835
 1 -11.49469567726773 -0.92325172157216 -3.46821761846185
 1 -13.37322539573957 -1.22786014411441 -3.34867872657266
 1 -10.10898844564456 -4.58477056895689 -0.40986679057906
 1 -9.54673658385839 -4.42773978747875 -2.09649016961696
 1 -8.75122682818282 -5.43319409930993 -1.03219787328733
 1 -3.81528725602560 -3.73362071337134 -0.41382444224422
 1 -1.68080494849485 -6.20459706340634  2.41821752575258
 1 -2.05095166686669 -4.95759549854985  3.61265571587159
 1 -3.30007106250625 -6.33776077607761  3.18635015521552
 1  2.68081987378738 -2.49300604170417 -1.39213634693469
 1  2.35069691259126 -0.84829626762676 -2.05541316061606
 1  4.38095953185319 -1.57534560506051  0.43163220762076
 1  4.89311457595760  1.72270996879688 -2.20452303970397
 1  5.65092205600560  0.31901785698570 -3.02714578167817
 1  3.97918440364036  0.28937174307431 -3.03640899779978
 1  6.57240733783378  1.18672181608161 -0.30012521292129
 1  6.17175500130013 -0.29021460676068  0.76680637473747
 1  7.07177783088309 -1.67718176357636 -0.82156700280028
 1  7.50732048314832 -0.16940143554355 -1.96524538223822
 1  9.04638908050805  0.74708255975598 -0.20220896239624
 1  8.74709743964397 -0.93608069506951  0.82045489838984
 1  10.24258112341234 -0.29858966066607 -1.81012173507351
 1  9.23343053065306 -2.94532319511951 -1.80057928342834
 1  10.89381624262426 -2.65834751115112 -1.44860060566057
 1  9.82136057785779 -2.75910778827883 -0.01672519401940
 1  11.03564775487549  0.71163878767877  0.27802126472647
 1  11.20031760116012 -0.93382186768677  1.12767328902890
 1  12.69972648064806 -1.61322520152015 -0.78380182298230
 1  12.72807312391239  0.13781650875087 -1.65765908440844
 1  13.56974801030103  1.03391378717872  0.59361453555356
 1  13.96368120362036 -0.62121507550755  1.18448802500250
 1  15.26157765516552  0.64908810861086 -1.41338798859886
 1  15.08897429242924 -2.02652093589359 -1.32202622312231
 1  16.87788452475248 -1.64016985648565 -0.86886827942794
 1  15.37091980958096 -2.16687630623062  0.38061076237624
 1  15.85725291689169  1.62903599229923  0.84578842244224
 1  16.31020734343435  0.37890169926993  1.52397439423942
 1  18.22076815411541 -0.02354083268327 -0.06735141984198
 1  17.57290001540154  1.30432339543954 -1.04870217481748
 1  17.97533923982398  2.70828955665567  0.70815731073107
 1  18.51329434363436  1.65123396019602  1.71775303090309
 1  20.15922415221522  1.00067080078008  0.07864080118012
 1  19.84111680888089  3.82643477557756 -1.02551752595259
 1  21.09059757695769  2.59807541134113 -1.72133745714571
 1  19.27146538233823  2.31642167876788 -2.11035621682168
 1  21.15839085218522  1.89748929922992  2.03269719751975
 1  21.87597143884388  3.11721983858386  0.52807470727073
 1  20.46894455715572  3.77609728022802  1.55282788718872
 1 -6.96807058955896  1.86761103310331  0.20590384718472
 1 -7.58207957455746 -0.15409028462846 -0.09115243544354

