%nproc=4
%Mem=2GB
# td=(NStates=1) B3LYP/SVP 

TD

0 1
 6 -5.08934178467847 -1.94744455045505  0.43413203830383
 6 -4.78824498269827  2.77097732673267  1.45403207930793
 6 -9.31731097469747  3.29087528382838 -0.25105972217222
 6 -9.82574442554255 -1.45346694129413 -0.97395354075408
 7 -5.24983173117312  0.54778123922392  0.81780923892389
 6 -4.51640973857386 -0.69105808940894  0.84408049364936
 6 -3.04621637533753 -0.54409489298930  1.32331558095810
 6 -2.98619277167717  0.91606672427243  1.77529203460346
 6 -4.40593555165516  1.48307535293529  1.33622553395340
 6 -2.93950044794479  0.86074437543754  3.41771162916292
 6 -2.00393573637364 -0.74859987408741  0.19895650335034
 6 -0.58848723682368 -0.74234308910891  0.63098086318632
 6  0.31223572947295 -1.02594951225123 -0.47096295349535
 8 -0.04623488758876 -1.39317900780078 -1.61487394199420
 8  1.62843791899190 -0.77324374287429 -0.21924691669167
 7 -7.11828500950095  2.68180292219222  0.53923451745175
 6 -6.04536871787179  3.36902363486349  1.00710483588359
 6 -6.29853112561256  4.75109319311931  1.03020457215722
 6 -7.54660772527253  4.98905022802280  0.61912714281428
 6 -8.14100955135514  3.62196079497950  0.23412474877488
 6 -5.34133328972897  5.72987677007701  1.62816882078208
 6 -8.17494408260826  6.17984770247025  0.36576163046305
 6 -9.02702022482248  6.40242953355335 -0.62561117741774
 7 -9.19387278657866  0.87746622122212 -0.41988896429643
 6 -9.86931870927093  2.07893119481948 -0.49967877857786
 6 -11.21495773377338  1.86116975647565 -0.90106417771777
 6 -11.45904134463446  0.51536557795780 -1.13886394799480
 6 -10.12136884528453  0.02309526012601 -0.81832531293129
 6 -12.19042323952395  3.00489305840584 -1.14822925202520
 6 -12.69374947234724 -0.16428552695270 -1.60369260426043
 6 -12.57750221982198 -0.59399404580458 -3.09705689008901
 7 -7.46958008370837 -1.21200551505151 -0.32122846794679
 6 -8.55663164866487 -1.88586520072007 -0.75941286968697
 6 -8.14656826402640 -3.30742534403440 -0.71605534403440
 6 -6.90067209540954 -3.41060694499450 -0.30100220552055
 6 -6.42353089268927 -2.00852265136514 -0.08888673457346
 6 -8.96985097019702 -4.47864126412641 -1.02719522632263
 6 -5.77633375487549 -4.27512273917392  0.03382605220522
 8 -5.68705056115612 -5.41640814951495 -0.10400347994799
 6 -4.53317892249225 -3.35653276597660  0.37478272787279
 6 -3.94441685648565 -3.81839553475348  1.63759564486449
 8 -4.15389800150015 -3.24943589948995  2.72850331433143
 8 -3.25690820652065 -4.91377165846585  1.45755149814981
 6 -2.65456898719872 -5.51099200450045  2.57451392169217
 6  2.65676571997200 -0.90498918951895 -1.26638084338434
 6  3.96463057285729 -0.66865148854885 -0.64042065526553
 6  5.03017531773177  0.03826287388739 -1.11258666326633
 6  5.02746325652565  0.54926876857686 -2.51612415141514
 6  6.23536724882488  0.20800342864286 -0.27073853695370
 6  7.54361858905891 -0.27609694279428 -0.95511286468647
 6  8.78921239823982 -0.12762796969697 -0.04055893579358
 6  10.06861871657166 -0.67296177877788 -0.62246322622262
 6  10.01558535193519 -2.27101226702670 -0.82266638133813
 6  11.38504917951795 -0.26532620322032  0.21892942494249
 6  12.65110369496950 -0.64091256965697 -0.48624650185018
 6  13.84627103430343 -0.09158186128613  0.30736709930993
 6  15.22322414351435 -0.26694973077308 -0.27550138593859
 6  15.73692101970197 -1.81606576847685 -0.29761949744974
 6  16.26820941814182  0.69627053825383  0.30217348174817
 6  17.70053689238924  0.62913864776478 -0.37348185598560
 6  18.67627747874787  1.67800641964196  0.39261795469547
 6  20.07878777467747  1.62988861416142  0.02050481088109
 6  20.17356828632863  2.27722715391539 -1.38467487648765
 6  21.06255672127213  2.28417215331533  1.02300870157016
 1 -3.83229139673967  3.42320870517052  1.72694493279328
 1 -10.05952353735374  4.16006544304430 -0.38392706660666
 1 -10.48180652055206 -2.14861087108711 -1.17558745264526
 1 -2.82223827532753 -1.38412877697770  2.04648644334434
 1 -2.11400196779678  1.48645859695970  1.48856835523552
 1 -1.91134865076508  0.40107752945295  3.57625435073507
 1 -3.14916821712171  1.89559420302030  3.87671677287729
 1 -3.72354293369337  0.21287198949895  3.96456530223022
 1 -2.18520797469747 -1.67010088778878 -0.33618047434743
 1 -2.08451439003900  0.12119959425943 -0.59317797849785
 1 -0.17893221662166  0.14694882078208  1.20775680618062
 1 -0.37739075197520 -1.59773895389539  1.39596671567157
 1 -4.31997665506551  6.05470360796080  0.99881301930193
 1 -5.75923714251425  6.68429354805481  1.83643924092409
 1 -4.82292406940694  5.44651450085008  2.62834389498950
 1 -8.01945204410441  6.84916194989499  1.16701800810081
 1 -9.33805919871987  5.77424541004100 -1.37615701170117
 1 -9.43829810901090  7.44685997129713 -1.13925362946295
 1 -12.34233878127813  3.66953745224522 -0.22144454305431
 1 -12.31347026932693  3.55374033873387 -2.03226044354435
 1 -13.25296269626963  2.44989060726073 -1.36178922582258
 1 -12.69527435333533 -1.10771089738974 -1.06179075287529
 1 -13.58021876417642  0.35371503290329 -1.48605228252825
 1 -12.49574408940894  0.13759077417742 -3.75694453785379
 1 -11.72305851355136 -1.34738413481348 -3.20391118781878
 1 -13.40513858705871 -1.13882124022402 -3.44102796149615
 1 -9.88009555635564 -4.41365345724572 -0.46134193809381
 1 -9.02501441164116 -4.55553256675668 -2.15125564616462
 1 -8.42632433793379 -5.53038381828183 -0.93782843634363
 1 -3.91360708800880 -3.45169252055206 -0.52107516731673
 1 -2.04643151115111 -6.42830943464346  2.25993169716972
 1 -2.04026059775978 -4.89073881288129  3.22603705400540
 1 -3.23736479187919 -6.01425842584258  3.22795431563156
 1  2.67312910471047 -2.03156989808981 -1.16781391469147
 1  2.41780362326233 -0.39392083008301 -1.93728134743474
 1  4.07874931083108 -0.94970304080408  0.47548659305931
 1  5.36743200770077  1.65616331413141 -2.59118170557056
 1  5.80132709650965  0.14958091329133 -3.29771283838384
 1  4.12173865906591  0.50765357125713 -3.18341369826983
 1  6.40179027612761  1.23245638953895 -0.12966816721672
 1  6.11938976477648 -0.40707629292929  0.67864755885589
 1  7.29526017911791 -1.33418746414641 -1.16355120122012
 1  7.73750350145014  0.21851735633563 -1.91751060876088
 1  9.04124856645664  0.91778963046305  0.19944120262026
 1  8.75554828472847 -0.61359844684468  1.15235808870887
 1  10.18721558685869 -0.21840164186419 -1.56963768666867
 1  9.06603379097910 -2.63281194399440 -1.40597982348235
 1  11.11256811781178 -2.49182085848585 -1.34705045064506
 1  10.05193363516352 -2.50890276777678  0.21333781228123
 1  11.39596378647865  0.89636726052605  0.38765222782278
 1  11.37684525392539 -0.85750423592359  1.27228775047505
 1  12.77508401640164 -1.86347022602260 -0.86960040284028
 1  12.79199951655166 -0.33867114001400 -1.55752907140714
 1  13.66457749324933  1.19840023582358  0.42373754785479
 1  13.84473930943094 -0.61785473947395  1.25450502670267
 1  15.35706720412041 -0.06288308850885 -1.21886853665367
 1  15.09198459345935 -2.22864114791479 -1.10004402490249
 1  16.79430616691669 -1.92229806930693 -0.47151854445444
 1  15.49524224182418 -2.16723634223422  0.83086578787879
 1  16.01518871047105  1.83696678537854  0.46361020462046
 1  16.35084140684069  0.53930773987399  1.46048804560456
 1  18.11188726602660 -0.42637111571157 -0.23023770847085
 1  17.82962568796880  1.14056701980198 -1.41317862246225
 1  18.29522122802280  2.74026275397540  0.43414990999100
 1  18.61328434263426  1.39890872767277  1.56278753435344
 1  20.22153038283829  0.53440417411741 -0.09031609450945
 1  19.66568926612661  3.29394152625263 -1.36785175937594
 1  21.21742025922592  2.71592719651965 -1.67220254365437
 1  19.94993322912291  1.59966000260026 -2.14988016921692
 1  20.93691870497050  1.86360591089109  2.08720264806481
 1  21.98892273397340  1.92943105970597  0.64484638443844
 1  21.03804146684669  3.48323799429943  1.11014361876188
 1 -6.89762354485448  1.67273154515452  0.35863912071207
 1 -7.62131349794979 -0.20301517711771 -0.15331865206521

