%nproc=4
%Mem=2GB
# td=(NStates=1) B3LYP/SVP 

TD

0 1
 6 -5.11685453595360 -1.94472427842784  0.46837546264626
 6 -4.70995715391539  2.76207643664366  1.37030370647065
 6 -9.32443168676868  3.48957515381538 -0.32798741494149
 6 -9.85678752985299 -1.38202979757976 -0.82828897429743
 7 -5.18596534453445  0.45925238633863  0.80469792779278
 6 -4.53859195679568 -0.74225320892089  0.89749583518352
 6 -3.10049180288029 -0.59581006450645  1.31017426682668
 6 -3.05327948034803  0.89308442604260  1.86471097649765
 6 -4.36334129222922  1.44046109150915  1.27582949434944
 6 -2.87229372727273  0.97319562056206  3.43376323432343
 6 -2.04248959175918 -0.79921493559356  0.12011861956196
 6 -0.58138652675268 -0.69961881668167  0.64688245334533
 6  0.33748825472547 -1.10696761406141 -0.40507636483648
 8  0.02603233913391 -1.47228691859186 -1.58299075367537
 8  1.60729580478048 -0.87231364986499 -0.12528752075208
 7 -7.07991117211721  2.75491023292329  0.39973056705671
 6 -5.92042622362236  3.40230696319632  0.94392851825183
 6 -6.17572884538454  4.77013509730973  0.95526707840784
 6 -7.44038710321032  4.98233955695570  0.48290352045205
 6 -8.02973842424242  3.68937753665367  0.15540687698770
 6 -5.23692284868487  5.88643242564256  1.40107611151115
 6 -8.16033262146215  6.31704142184218  0.29501455575558
 6 -9.08006552935294  6.64386367696770 -0.56994561086109
 7 -9.15502890219022  0.91409988458846 -0.43467044244424
 6 -9.83198497589759  2.10243354505451 -0.57997680838084
 6 -11.21497773577358  1.92889652915292 -1.04230830213021
 6 -11.38776421692169  0.57593163456346 -1.17211727332733
 6 -10.07345405380538 -0.00703775317532 -0.72538601900190
 6 -12.22888708590859  3.04994756385639 -1.16882131123112
 6 -12.57026712411241 -0.21906100450045 -1.64512674767477
 6 -12.72133660326033 -0.41983663006301 -3.13752093649365
 7 -7.49582270797080 -1.22227654215422 -0.12229857495750
 6 -8.58191417691769 -1.93185980018002 -0.49139606800680
 6 -8.26141974917492 -3.39322392389239 -0.62239597809781
 6 -6.93511553975398 -3.41152703700370 -0.23729583488349
 6 -6.48325686528653 -2.05588738783878  0.01237339143914
 6 -9.23407739283928 -4.59480288028803 -0.90111261806181
 6 -5.74573069456946 -4.28464369126913 -0.07109443984398
 8 -5.55615747184719 -5.43729023772377 -0.20744382398240
 6 -4.55447105170517 -3.35561267396740  0.33023827342734
 6 -3.80108252305231 -3.86908060326033  1.54732661796180
 8 -3.96935954765477 -3.55105606150615  2.72549301330133
 8 -2.95226774247425 -4.89984026532653  1.22517826082608
 6 -2.49860339063906 -5.61603250855086  2.38853532383238
 6  2.62787283068307 -1.17303599419942 -1.09924412971297
 6  3.92265637543754 -0.81286590999100 -0.36902351555156
 6  4.88587088728873 -0.16211716411641 -0.83901930653065
 6  4.76890740094009  0.79369321102110 -2.09232177117712
 6  6.21648536063606  0.07679030733073 -0.16545800890089
 6  7.45049927712771 -0.48033736683668 -0.97025437883788
 6  8.73313679067907 -0.41220642754275 -0.11667654755476
 6  10.11438329302930 -0.75406988958896 -0.79247022692269
 6  10.08198199159916 -2.28044321012101 -1.00294440914091
 6  11.20986166076608 -0.37050672127213  0.09113664566457
 6  12.62381096569657 -0.59215769416942 -0.56320419761976
 6  13.75063147034703  0.12450974787479  0.13006936953695
 6  15.23155497659766 -0.19889292509251 -0.40390422622262
 6  15.66016334393439 -1.64222838473847 -0.34927466296630
 6  16.22353495069507  0.69641055225523  0.38769203360336
 6  17.62635947464747  0.89163489738974 -0.24205871367137
 6  18.65340519151915  1.71111973097310  0.58408710161016
 6  20.09669956585659  1.67484310961096  0.10351311171117
 6  20.13990491999200  2.33962339353935 -1.34154056305631
 6  21.14768523412341  2.38474221032103  0.97521392209221
 1 -4.05927409500950  3.47799418371837  1.79133137143714
 1 -9.91962954795480  4.34516395289529 -0.27786646054605
 1 -10.76006434633464 -2.02093810381038 -1.12270216411641
 1 -2.73119917141714 -1.19357972207221  2.13989578427843
 1 -2.27856842444244  1.45498544964496  1.40237973637364
 1 -1.88823633953395  0.31683910561056  3.74487121242124
 1 -3.22998629892989  1.98254289788979  3.93141224242424
 1 -3.53472405180518  0.34089479177918  4.11673051875188
 1 -2.23706316021602 -1.83763764146415 -0.06520337663766
 1 -2.28481442004200 -0.05169769546955 -0.64278293899390
 1 -0.10292461586159  0.31012513841384  1.01386741724172
 1 -0.42463547644764 -1.36071525152515  1.53518063706371
 1 -4.35349000640064  5.90814895249525  0.75451858985899
 1 -5.70135135393539  6.88032315101510  1.21938753575358
 1 -4.72894467146715  5.65470531993199  2.27435849644964
 1 -8.05396549544954  6.93436046974697  1.23572487878788
 1 -9.36178157095710  6.21224921042104 -1.48562795879588
 1 -9.72331661086109  7.67675296059606 -0.35210491459146
 1 -12.52726727412741  3.67590808930893 -0.11446384498450
 1 -12.07927684998500  3.76423138783878 -2.04194141164116
 1 -13.27825522552255  2.67967358555856 -1.36223927082708
 1 -12.93202802870287 -1.21014114041404 -1.39710428422842
 1 -13.69536027832783  0.30884054545455 -1.46198987628763
 1 -12.23033754875487  0.65738275337534 -3.60532937633763
 1 -12.05455166286629 -1.25484488088809 -3.64481527822782
 1 -13.94412248544855 -0.66650400850085 -3.48292215091509
 1 -10.08474602140214 -4.29811190309031 -0.29157496139614
 1 -9.59815172537254 -4.69295630913091 -1.90752127272727
 1 -8.80837254275428 -5.63764454435444 -0.70313496699670
 1 -3.83688941624162 -3.46417376867687 -0.55170823062306
 1 -2.06943381138114 -6.51088769246925  1.94482018601860
 1 -1.60483705540554 -5.22868260726073  3.05828027832783
 1 -3.34243529892989 -6.03445044504450  2.95199671987199
 1  2.38608039983998 -2.28706544764476 -1.34136126942694
 1  2.47732957585759 -0.51756319431943 -1.80461808110811
 1  3.83745518141814 -1.38781685218522  0.51341038543854
 1  5.06584184868487  1.84937263506351 -1.97872045944594
 1  5.57888485228523  0.50823677887789 -2.72573564066407
 1  3.88679516471647  0.74513731963196 -2.53840919781978
 1  6.18430852795279  1.21396454035404 -0.12911811221122
 1  6.27319514531453 -0.42447803310331  0.84366406050605
 1  7.23812446554656 -1.48967301270127 -1.35359020512051
 1  7.44761451255126  0.13070857545755 -1.77295615331533
 1  8.69126356795680  0.58122597409741  0.21031228972897
 1  8.85881861176118 -1.10404749174917  0.70367322022202
 1  10.08263512881288 -0.46131593329333 -1.83600432333233
 1  9.33258044564456 -2.50835949874987 -1.58431765726573
 1  11.13643050405041 -2.69968164456446 -1.24724046964696
 1  9.86874531633163 -2.84977685518552  0.01197767626763
 1  11.33380757085708  0.69781740554055  0.28285174777478
 1  11.16812438183818 -0.93073155865587  1.09145966766677
 1  12.74184069206921 -1.67708158715872 -0.58459190199020
 1  12.45903622022202 -0.14815208810881 -1.58386170467047
 1  13.69947098259826  1.19334973077308  0.11792696679668
 1  13.63895873137314 -0.08135108910891  1.18181775797580
 1  15.40386188358836  0.30769396919692 -1.50705735553555
 1  14.92808820382038 -2.23783206700670 -0.89234325482548
 1  16.71307804410441 -2.13348918841884 -0.50032142474247
 1  15.29777249484949 -2.15409502810281  0.79205190649065
 1  15.79600679227923  1.71965505420542  0.55601944554455
 1  16.24688101080108  0.16523033213321  1.32455445224522
 1  17.75253133043304 -0.17734621322132 -0.42493717841784
 1  17.53698642404240  1.29657262036204 -1.36259356395640
 1  18.18373007890789  2.82275100280028  0.60325682068207
 1  18.50677369156916  1.44423326012601  1.59533078867887
 1  20.39473770357036  0.56390712441244 -0.05199226212621
 1  20.04717741494149  3.54136626872687 -1.26202117631763
 1  21.02896141334133  2.35755135893589 -1.73716904030403
 1  19.50109834563456  2.03986402300230 -2.09549473067307
 1  21.02975798889889  1.87454700500050  1.98692262006201
 1  22.20364420612061  2.28329644624462  0.77080898069807
 1  20.90373803650365  3.45085475597560  1.21398400280028
 1 -7.21008479097910  1.77208148014801  0.38889214601460
 1 -7.60589195579558 -0.20775565116512 -0.17740106030603

