%nproc=4
%Mem=2GB
# td=(NStates=1) B3LYP/SVP 

TD

0 1
 6 -5.11029387988799 -1.98039784578458  0.39744836993699
 6 -4.70534669286929  2.90317054605461  1.34485116121612
 6 -9.38931817541754  3.20101629792979 -0.18667328352835
 6 -9.91777362846285 -1.50810240484048 -0.86913305870587
 7 -5.21222797079708  0.50970743184318  0.82279973797380
 6 -4.59770786838684 -0.64283326692669  0.82663874947495
 6 -3.21313306700670 -0.53962444594459  1.26170942034203
 6 -3.05454960736074  0.90521563916392  1.81947645304530
 6 -4.40047500560056  1.47198424382438  1.24644655605561
 6 -2.93716021392139  1.15622392339234  3.29398925692569
 6 -2.07907325012501 -0.72041705580558  0.11463807150715
 6 -0.59103749184918 -0.61657051185119  0.46989475457546
 6  0.47306181208121 -0.81260817811781 -0.54324018121812
 8  0.15098483438344 -1.23608329822982 -1.64482693729373
 8  1.62226730193019 -0.48182460096010 -0.14290928292829
 7 -7.00215339633963  2.71809655155516  0.45345593959396
 6 -5.90580476147615  3.45155188768877  0.98219234463446
 6 -6.25226649914991  4.75661374517452  1.02559411111111
 6 -7.60647371187119  4.91225254825483  0.57582281238124
 6 -8.02583803420342  3.58850744964496  0.14527586388639
 6 -5.30184934133413  5.87318110051005  1.38068407230723
 6 -8.35900248844884  6.20500021772177  0.53778883318332
 6 -9.21144866766677  6.42559184978498 -0.44363297959796
 7 -9.28757215651565  0.70837931253125 -0.46987396279628
 6 -9.90243202060206  1.99802310401040 -0.48141695239524
 6 -11.30562680068007  1.70624426392639 -0.87430150145015
 6 -11.32391783228323  0.45198924032403 -1.19873993559356
 6 -10.14918162656266 -0.20371742114211 -0.85590907130713
 6 -12.25258945614561  2.90143271237124 -1.15523995309531
 6 -12.65530562796280 -0.29642874127413 -1.75372760776078
 6 -12.51184565416542 -0.85067971437144 -3.22370955535554
 7 -7.60314344004400 -1.28747306180618 -0.26664300940094
 6 -8.68390437593759 -2.08413502770277 -0.65701262966297
 6 -8.28492209940994 -3.42928753025303 -0.64803854235424
 6 -6.85629765796580 -3.47775365966597 -0.25848795409541
 6 -6.49903844344434 -2.10791259035904 -0.07807565346535
 6 -9.08964294939494 -4.64230763076308 -0.89797230403040
 6 -5.72047816931693 -4.34487971487149 -0.02913024342434
 8 -5.57740959705971 -5.51673818251825 -0.05974905450545
 6 -4.48709431403140 -3.33175028772877  0.44759000860086
 6 -3.91680409520952 -3.86080977617762  1.67630951625163
 8 -4.26207881958196 -3.47146810271027  2.87207767176718
 8 -3.05343785948595 -4.77143742504250  1.58293403640364
 6 -2.35933946424642 -5.43013391869187  2.66962343264326
 6  2.69466951035103 -0.81694038463846 -1.23072727802780
 6  4.05738984878488 -0.41116573997400 -0.56078269146915
 6  5.04166646684668  0.31891093869387 -1.03968937353735
 6  4.98083859405941  1.03138698039804 -2.42337487648765
 6  6.31808552065207  0.42997562586259 -0.15988745184518
 6  7.56550077727773 -0.08062739583958 -0.95251260466047
 6  8.73432690969097 -0.14821002790279 -0.03569844974497
 6  10.02514436913691 -0.49181366396640 -0.71866284618462
 6  9.99666345974597 -2.03782894869487 -1.16677079177918
 6  11.21966264086409 -0.22891256185619  0.23281081308131
 6  12.61938052265227 -0.47666614501450 -0.50989886708671
 6  13.81574798199820 -0.01885458855886  0.20272663526353
 6  15.23148496959696 -0.15969900570057 -0.39148298409841
 6  15.60755808340834 -1.61447560946095 -0.78650838633863
 6  16.34586718391839  0.43862477367737  0.46604986938694
 6  17.72270910961096  0.53800953485349 -0.24942945074507
 6  18.75835568656866  1.19656827582758  0.67939663256326
 6  20.18741863776378  1.19929555485549  0.11585434583458
 6  20.19153008250825  1.82366179737974 -1.24050045904590
 6  21.15698616421642  1.97585132123212  1.13442984368437
 1 -3.98268643624362  3.53964034833483  1.58194043234323
 1 -10.14896248124812  3.91884132063206 -0.28173684758476
 1 -10.59974831473147 -2.25050106010601 -1.26681657555756
 1 -2.97160321182118 -1.25109547364736  2.13289508420842
 1 -2.35446601420142  1.29060901200120  1.47721722012201
 1 -1.92098961486149  0.70735815751575  3.76608333363336
 1 -3.00934423472347  2.19581422502250  3.61438053925393
 1 -3.51070164956496  0.62810351265126  3.83080192589259
 1 -2.26732618651865 -1.88090196789679 -0.44440129642964
 1 -2.43047898649865 -0.29371189688969 -0.84673333403340
 1 -0.61407573097310  0.53635776167617  0.87554358485849
 1 -0.52840585348535 -1.22867204720472  1.39944706370637
 1 -4.57864252165217  5.68585672327233  0.66627976597660
 1 -5.87951917071707  6.86914203290329  1.27941353835384
 1 -4.77116889388939  5.53057290669067  2.38441950255026
 1 -7.83928402730273  7.05841287498750  1.09378068436844
 1 -9.64631002380238  5.76094407990799 -1.26008540454045
 1 -9.90602488168817  7.42412769806981 -0.43725342944294
 1 -12.37719226662666  3.55809630813081 -0.35695809440944
 1 -11.99621854415442  3.56829179387939 -2.07531474897490
 1 -13.28305570557056  2.40992661086109 -1.13808685558556
 1 -12.92126695259526 -1.21117124342434 -1.03524809860986
 1 -13.45124586688669  0.54253391479148 -1.57825150245024
 1 -12.35976049104910  0.01953896899690 -3.91695053845384
 1 -11.70255646334634 -1.51734113051305 -3.54356515321532
 1 -13.52674074727473 -1.26405376347635 -3.41141500020002
 1 -9.94135168196820 -4.62820491239124 -0.06966277017702
 1 -9.68438034823482 -4.48776579007901 -1.83321384198420
 1 -8.62664436993699 -5.67488826872687 -0.90113476697670
 1 -3.63259898719872 -3.56856420772077 -0.23542660246025
 1 -1.49462633063306 -6.03305990969097  2.17905360936094
 1 -1.77851442314231 -4.54983472247225  3.26449089938994
 1 -3.16707776317632 -5.82037903790379  3.37288880908091
 1  2.67459925172517 -1.77822456355636 -1.32552968626863
 1  2.39347119001900 -0.30508194619462 -2.13848146744674
 1  4.18901033693369 -0.96695476597660  0.45337438183818
 1  5.33681894639464  2.06890458825883 -2.10197278467847
 1  5.72606957075708  0.79635559075908 -3.13871693879388
 1  3.88475496069607  0.85957876377638 -3.01383674057406
 1  6.34098419551955  1.60532367626763  0.12104690429043
 1  6.04993281908191 -0.15757134243424  0.82126182028203
 1  7.35557621072107 -1.05739978537854 -1.53169801590159
 1  7.80761051215122  0.43833933853385 -2.01280013771377
 1  8.89321376297630  0.98131598309831  0.54337559605961
 1  8.64272700260026 -0.80817790479048  0.92309516241624
 1  10.05403226852685  0.25433563186319 -1.76061678457846
 1  9.07705489308931 -2.18248691149115 -1.82383160866087
 1  10.93182004300430 -2.25696737313731 -1.85736148174817
 1  10.17233567536754 -2.59072094959496 -0.20783430493049
 1  11.24390858095810  0.80292791659166  0.60270373297330
 1  11.13017058645865 -0.89089757525753  1.08827934963496
 1  12.73638014601460 -1.52570644964496 -0.56753019581958
 1  12.24240455705570 -0.06888416131613 -1.52615593409341
 1  13.78237927342734  1.14253464926493  0.23044821892189
 1  13.68477331283128 -0.43096605060506  1.22048162436244
 1  15.35059655705571  0.34283748354836 -1.27857450725072
 1  14.99643503850385 -1.95125340914091 -1.53996801730173
 1  16.57124386068607 -1.86557239673967 -1.18076946954695
 1  15.49589230683068 -2.31471108970897  0.16741944324432
 1  16.11435862746275  1.52557564626463  0.69378322192219
 1  16.42345866856686 -0.06856304720472  1.44233623042304
 1  17.96988306560656 -0.43068154675468 -0.34027871257126
 1  17.65690841624162  1.08879184228423 -1.25186249084908
 1  18.47701940784079  2.23781250895090  0.90544703970397
 1  18.67211022522252  0.80326916371637  1.65375663126313
 1  20.49849807960796  0.04722545624562  0.17004994209421
 1  19.86188888608861  2.90583271537154 -0.94293926812681
 1  21.34047256445644  1.91717732153215 -1.70633595699570
 1  19.66626486228623  1.17082711931193 -2.15880106130613
 1  21.02645765886589  1.58018756905691  2.20501442924292
 1  22.09904374607461  1.91084920152015  0.58476037583758
 1  21.05534319701970  3.12687235773577  1.23920652505251
 1 -7.11623540604060  1.67910218221822  0.53716697349735
 1 -7.43030439703970 -0.17414228982898 -0.17785110531053

