%nproc=4
%Mem=2GB
# td=(NStates=1) B3LYP/SVP 

TD

0 1
 6 -5.15650850135014 -1.94458426442644  0.54642326742674
 6 -4.63711987018702  2.78053828282828  1.33923059915992
 6 -9.41581082468247  3.43910010631063 -0.14637925412541
 6 -9.89322117321732 -1.37682927752775 -0.87626377177718
 7 -5.13634038203820  0.52198865996600  0.78281573957396
 6 -4.59923802140214 -0.69307829142914  0.71153723932393
 6 -3.06206796049605 -0.56572705620562  1.17761101050105
 6 -3.05507966036604  0.81808692629263  1.82314682008201
 6 -4.37565252335234  1.43045009040904  1.34227613901390
 6 -3.04953145104510  0.96612491349135  3.42749260726073
 6 -2.00868621142114 -0.71375638973897  0.04622122982298
 6 -0.58808719681968 -0.81957081188119  0.49852761786179
 6  0.35017952385239 -1.26744366166617 -0.63248910611061
 8  0.09655939183918 -1.70316000590059 -1.67661011561156
 8  1.71026610181018 -0.93143956245625 -0.33961895389539
 7 -7.03128630963096  2.79383412531253  0.51806240024002
 6 -5.84178835983598  3.44830156265627  1.00959508490849
 6 -6.10552182468247  4.88225630943094  1.05082663436344
 6 -7.47095015951595  5.07734905790579  0.51029625972597
 6 -8.00942639303931  3.68690728962896  0.20265160146015
 6 -5.12327148354835  5.81270505290529  1.46592259615962
 6 -8.05064165236524  6.31047076477648  0.38403345764576
 6 -9.03608113091309  6.72034132473247 -0.43482209850985
 7 -9.22673607290729  0.88761723632363 -0.20859783518352
 6 -9.87590936833683  2.05926922862286 -0.40102891359136
 6 -11.28483472147215  1.89339297879788 -0.90316438773877
 6 -11.45020046054606  0.64806884828483 -1.12867292889289
 6 -10.19083579197920 -0.11826887628763 -0.73217669806981
 6 -12.15092929012901  3.03730629972997 -1.31230565966597
 6 -12.48033813121312 -0.15782488088809 -1.72273450845085
 6 -12.43465793539354 -0.40087473387339 -3.26030321472147
 7 -7.46675980168017 -1.29467378187819 -0.22363870897090
 6 -8.54469045454545 -1.97999461366137 -0.67091401980198
 6 -8.13914752195219 -3.34300890239024 -0.68855259375938
 6 -6.77703973217322 -3.39126501080108 -0.29694179947995
 6 -6.43363190279028 -2.08127992709271 -0.04806265216522
 6 -9.04822880798080 -4.49164256425643 -0.99634214101410
 6 -5.74842096359636 -4.32594782168217  0.02480515011501
 8 -5.70259211531153 -5.55417192589259 -0.00112319191919
 6 -4.49055466006601 -3.35268238093809  0.57080232983298
 6 -4.00064247904790 -3.85797949314931  1.89315120042004
 8 -4.33214582628263 -3.37142809870987  2.97547801180118
 8 -3.09593210891089 -4.77927820912091  1.60146588958896
 6 -2.58430196049605 -5.45463636893689  2.80016648694869
 6  2.66666671007101 -1.16694538513851 -1.30155436073607
 6  4.00287439723972 -0.95153977737774 -0.65832244544454
 6  4.89243154335434 -0.13710466286629 -1.08141354595460
 6  4.87322783298330  0.78749259095910 -2.28026056505651
 6  6.19831354345435 -0.13288065976598 -0.19882134523452
 6  7.42313654085409 -0.46585591869187 -1.14722207560756
 6  8.70203368036804 -0.35378058495850 -0.35175005490549
 6  10.08054990969097 -0.79971445404540 -0.92319329922992
 6  10.06309010241024 -2.27808297409741 -1.34585870057006
 6  11.26066674127413 -0.45794546514651  0.03533106510651
 6  12.64828341294129 -0.67399587798780 -0.68920679787979
 6  13.82704911211121 -0.13861656475648  0.20763712631263
 6  15.20347216831683 -0.18151118691869 -0.43676751255126
 6  15.71687901550155 -1.56450061196120 -0.63838357385739
 6  16.22459505670567  0.65477638883888  0.30725398979898
 6  17.64800163886389  0.96494222812281 -0.13607811561156
 6  18.46594644564456  1.77487610661066  0.72843153605361
 6  19.98074797069707  1.88576420172017  0.29864262466247
 6  20.18914984448445  2.43711314251425 -1.05320172917292
 6  20.85408587418742  2.54490822692269  1.44006040674067
 1 -3.86655482308231  3.55417180148015  1.78882112041204
 1 -10.15099268426843  4.30518995549555 -0.29822849674967
 1 -10.44385272517252 -2.13035904590459 -1.23631352525253
 1 -2.88428447994799 -1.18678904300430  2.00041183588359
 1 -2.03960452805281  1.51893184428443  1.57654715311531
 1 -2.16461397729773  0.70849827152715  3.72610933623362
 1 -3.30905420572057  1.99185382898290  3.70650975217522
 1 -3.70111069046905  0.29859056135614  3.82924176987699
 1 -2.22747220112011 -1.60328420612061 -0.65573242954295
 1 -2.29989592819282  0.01379885418542 -0.62093075377538
 1 -0.13916824022402 -0.03913978807881  1.14928095859586
 1 -0.42747576047605 -1.59233841384138  1.22708982798280
 1 -3.92200685808581  5.75920405800580  0.83694683268327
 1 -5.53488470727073  6.85195031373137  1.43189878687869
 1 -4.80618239523952  5.55416526592659  2.55234629522952
 1 -7.64679477837784  7.05551258495850  0.85367667396740
 1 -9.60892628542854  5.93550153565356 -1.09815921192119
 1 -9.19080335953595  7.77883316861686 -0.36404610871087
 1 -12.60215476287629  3.72006250475048 -0.45834823342334
 1 -11.62390131243124  3.78273323802380 -2.00077729522952
 1 -13.23365076507651  2.95286090429043 -1.72826587348735
 1 -12.49825465136514 -1.46260638693869 -1.11415598939894
 1 -13.46045678797880  0.18746840824082 -1.46314999229923
 1 -12.29906442144214  0.48635565066507 -3.87380622402240
 1 -11.66761296899690 -1.17216661306131 -3.58730952765277
 1 -13.19193726692669 -0.95314267236724 -3.74479833853385
 1 -10.07116466326633 -4.53384547644764 -0.57212301620162
 1 -9.42831474167417 -4.39762677617762 -2.25965648624862
 1 -8.60271197669767 -5.31856263616362 -0.69601425492549
 1 -3.55013074037404 -3.54885223652365 -0.02122518231823
 1 -1.75298216621662 -6.21177778147815  2.26672237623762
 1 -2.03744031573157 -4.60409014801480  3.39486393669367
 1 -3.38749980538054 -5.85907290729073  3.37271879207921
 1  2.66402819461946 -2.29729647074707 -1.72525965926593
 1  2.43468531143114 -0.36205764376438 -2.22493011231123
 1  4.29944138003800 -1.56051412191219  0.16781582598260
 1  5.50461572607261  1.66110380818082 -2.14636722412241
 1  5.12915987978798 -0.00791483628363 -3.07349041614161
 1  3.77331381658166  1.21291409730973 -2.56665202210221
 1  6.26257635473547  0.95100824472447  0.24853965356536
 1  6.07887571337134 -0.80622620792079  0.79499919401940
 1  7.45620627372737 -1.54460850625062 -1.69872471857186
 1  7.39863961506151  0.14906041064106 -2.19492835053505
 1  8.86138057965796  0.55576342784278  0.03667492599260
 1  8.43060579047905 -1.03613070007001  0.53078593149315
 1  10.33206007130713 -0.18224802650265 -1.80831155405541
 1  9.35656284388439 -2.38021668446845 -1.98124735023502
 1  11.08094495549555 -2.62842451885188 -1.65210095569557
 1  9.62083052485248 -3.02140401790179 -0.52000552205221
 1  11.11327551765176  0.60824844864486  0.29508297089709
 1  11.21701927132713 -1.06197468296830  0.98512903460346
 1  12.67214372237224 -1.76041992099210 -0.78838228102810
 1  12.49738005460546 -0.02011928482848 -1.75682900140014
 1  13.62727376287629  0.90386078187819  0.23606878097810
 1  13.78108294379438 -0.38807176117612  1.14433400960096
 1  15.00937243464347  0.23427662746275 -1.53803045284528
 1  15.04045944094410 -2.42994127792779 -0.99061308180818
 1  16.56777351365137 -1.75070090959096 -1.47756914951495
 1  15.99219193679368 -2.01813143174317  0.35272797409741
 1  15.66204339593959  1.65431852055205  0.58464230783078
 1  16.36040236293629  0.14621843094309  1.36570856765677
 1  18.11918799609961 -0.04866334493449 -0.21776646134613
 1  17.62010473587359  1.23401636473647 -1.20616792139214
 1  18.19317102300230  2.91895062276228  0.86785328032803
 1  18.06043905810581  1.52555139193919  1.76213746934693
 1  20.45817404720472  0.81947268096810  0.00421335843584
 1  20.04101679887989  3.46368850095010 -1.21707668186819
 1  21.34708322552255  2.36601220502050 -1.35253057645765
 1  19.58404664046405  1.82625266186619 -2.06163134433443
 1  20.83502851595160  1.94150370067007  2.43732766056606
 1  22.12046588828883  2.64504262086209  1.11304320412041
 1  20.55720338303831  3.54660433093309  1.75025763016302
 1 -7.18213199569957  1.79956422842284  0.44134739153915
 1 -7.61087245384538 -0.22540741634163 -0.25943926412641

