%nproc=4
%Mem=2GB
# td=(NStates=1) B3LYP/SVP 

TD

0 1
 6 -5.12214506500650 -1.94471427742774  0.46119474457446
 6 -4.70005616381638  2.70694092309231  1.45009168526853
 6 -9.34327357095709  3.23764996129613 -0.22680729692969
 6 -9.72615446654665 -1.49923151775177 -1.15856200160016
 7 -5.18741548954895  0.33628008910891  0.92596005400540
 6 -4.40678877647765 -0.74948393199320  0.91952803840384
 6 -3.06195794949495 -0.51372185568557  1.39121237063706
 6 -3.17768192059206  0.85112022962296  2.02167667306731
 6 -4.53222818091809  1.33834087948795  1.52013392479248
 6 -3.21606810471047  0.80594889588959  3.53638349634963
 6 -2.10439578237824 -0.45795080918092  0.20004661236124
 6 -0.68771715981598 -0.55488434323432  0.57276504160416
 6  0.27986249214922 -0.72876979427943 -0.57353321052105
 8 -0.08074833893389 -1.13818350825083 -1.62353480808081
 8  1.58036311151115 -0.42155857435744 -0.27897288928893
 7 -7.04665784678468  2.71776651855186  0.47471806580658
 6 -5.97044122512251  3.31687842034203  0.98209233463346
 6 -6.30493176567657  4.74265234903490  1.12628418011801
 6 -7.56811987648765  4.91321264426443  0.61114634473447
 6 -8.03019847024703  3.58726732563256  0.17815915221522
 6 -5.36438559495950  5.88186196859686  1.72536854075408
 6 -8.33965055325532  6.23342306000600  0.44442949724973
 6 -9.30491801460146  6.50974026462646 -0.36916553285329
 7 -9.22032543184318  0.77433590819082 -0.52652962836284
 6 -9.88055983338334  2.02587588928893 -0.60814962566257
 6 -11.19935617361736  1.75870951045105 -1.12093616491649
 6 -11.36962240274027  0.45779982138214 -1.28063812541254
 6 -9.99993670207021 -0.20044709410941 -0.99575305570557
 6 -12.37126132333233  2.84543711281128 -1.17811224032403
 6 -12.44819491689169 -0.34037313571357 -1.92684491949195
 6 -12.27479194879488 -0.75994064046405 -3.43742092649265
 7 -7.39155228092809 -1.28274258875888 -0.33766011111111
 6 -8.49396538203820 -2.05102171637164 -0.79293622202220
 6 -8.02032563976398 -3.42224682618262 -0.70384412291229
 6 -6.63906593479348 -3.48538442274227 -0.39013111841184
 6 -6.37274581418142 -2.09787158625863 -0.10606845274527
 6 -8.82598658375838 -4.70196359635964 -1.18404091089109
 6 -5.59032515401540 -4.29564479137914  0.09180184978498
 8 -5.51407326342634 -5.53499000770077  0.11021794219422
 6 -4.34771037563756 -3.39906701940194  0.39724497409741
 6 -3.96664907970797 -3.76488018321832  1.73942582788279
 8 -4.34864747644765 -3.38775973187319  2.82544300830083
 8 -2.95309782548255 -4.73501378267827  1.62791853485349
 6 -2.53191672197220 -5.38532943824382  2.90450692099210
 6  2.60416045944594 -0.63098178877888 -1.23069727502750
 6  3.88212232203220 -0.30830545394539 -0.49209582278228
 6  4.91621392159216  0.47586663426343 -1.05131053565357
 6  4.91658216841684  1.07467130883088 -2.32309484848485
 6  6.17712142424242  0.60554318261826 -0.24720618371837
 6  7.37301152835284 -0.24341367446745 -0.90149750315031
 6  8.74878835583558  0.07656244934493 -0.10605548544854
 6  10.05696755145514 -0.52972745534553 -0.64008498839884
 6  9.85497929132913 -2.14114928072807 -0.64339845454545
 6  11.28841951655165 -0.01557122772277  0.10578811081108
 6  12.62185076967697 -0.62005048344834 -0.42613049024903
 6  13.85688209540954 -0.05168787188719  0.21814817741774
 6  15.22943476457646 -0.41633466926693 -0.40225406120612
 6  15.46626395399540 -2.03368753065307 -0.27417715321532
 6  16.35480807800780  0.41543245444544  0.26386965136514
 6  17.70806764546455  0.32476821072107 -0.30544505230523
 6  18.73726357735773  1.28091671067107  0.43356204910491
 6  20.12893278917892  1.30327595289529 -0.21907914751475
 6  20.14684561406141  1.97708713991399 -1.47017342634263
 6  21.23808427402740  2.00901463756376  0.77854425512551
 1 -4.10392856045605  3.23644002830283  2.34922716101610
 1 -10.12633021802180  4.03123255975598 -0.31227990189019
 1 -10.54290263016302 -2.11015702570257 -1.69427932183218
 1 -2.92272832433243 -1.40654101820182  2.13982577727773
 1 -2.35537610521052  1.47158710981098  1.72939243764376
 1 -2.22663017891789  0.28564598629863  3.77170389568957
 1 -3.20967426772677  1.88848349194920  3.83080218141814
 1 -4.05055563496350  0.08485918821882  3.74240308600860
 1 -2.15932538643864 -1.50369424712471 -0.40284714101410
 1 -2.46487242584258  0.31471894619462 -0.57170583128313
 1 -0.33137746114611  0.35858998489849  1.15579160966097
 1 -0.38857187008701 -1.31455063506351  1.32725984498450
 1 -4.33825848324832  5.78443658125813  1.25414855285529
 1 -5.79821103990399  6.72478759745975  1.49524512151215
 1 -5.46929870687069  5.93571342074207  2.87420848144815
 1 -8.19801990089009  6.85496252995299  1.44780608690869
 1 -9.51962735553555  6.01106909240924 -1.44695409140914
 1 -9.93031731093109  7.45978126342634 -0.17448715281528
 1 -12.72684723212321  3.36681718021802 -0.20929332793279
 1 -11.84159308160816  3.68191315601560 -1.66042325982598
 1 -13.45463286328633  2.46992261046105 -1.86508955585559
 1 -12.56668149404940 -1.27026715301530 -1.40892546634664
 1 -13.33694443674367  0.26142580398040 -1.87546122342234
 1 -12.14623913891389  0.32291930703070 -3.99911875527553
 1 -11.46657286498650 -1.47228662506251 -3.54491528822882
 1 -13.15064313751375 -1.15834319241924 -3.71989584828483
 1 -9.68816636343634 -4.86272836473647 -0.66006181008101
 1 -8.88093000320032 -4.57343435693569 -2.31259177977798
 1 -8.36023772927293 -5.57422820272027 -0.98300295379538
 1 -3.56334206150615 -3.46476382768277 -0.28822188198820
 1 -1.67592446044604 -6.34179078277828  2.68985468946895
 1 -2.12727929962996 -4.44692443144314  3.61913636393639
 1 -3.44806586198620 -5.68580558055806  3.35760728092809
 1  2.53065485728573 -1.62498924002400 -1.66073320662066
 1  2.52425426832683  0.01383994599460 -2.01198881818182
 1  3.98938037393739 -0.89704777527753  0.53893293769377
 1  5.45110037453745  2.03407110491049 -2.21910449784979
 1  5.52058902270227  0.58188414361436 -3.00976404350435
 1  3.97156364156416  1.28307111301130 -3.08021337823782
 1  6.47052714981498  1.58474161806181 -0.07660286068607
 1  6.08002582838284  0.07503191789179  0.87926762086209
 1  7.20067072017202 -1.22754680008001 -0.90009485558556
 1  7.44865461656166  0.14317982258226 -1.81942079977998
 1  8.69692413401340  1.17770562206221  0.09246050455045
 1  8.65826855675568 -0.45292237923792  0.89080193309331
 1  10.29240610591059 -0.36861666336634 -1.59187991089109
 1  8.94683187078708 -2.31933059585959 -1.23386261176118
 1  10.66019288028803 -2.63359503590359 -1.06480222582258
 1  9.70686912871287 -2.47368924642464  0.51369784828483
 1  11.24331852195219  1.22464008780878 -0.12705924332433
 1  11.31274884428443 -0.26349483498350  1.35270579227923
 1  12.34671117911791 -1.68274215321532 -0.47495093789379
 1  12.35635595219522 -0.29875714861486 -1.45245856435644
 1  13.70471150665066  1.14729512531253  0.20303547764776
 1  13.76541137663766 -0.47464041804180  1.15836541274127
 1  15.37460895829583 -0.15462226242624 -1.49187583738374
 1  14.73754914991499 -2.56896518031803 -0.70852487298730
 1  16.42301903820382 -2.22860870037004 -0.48837022962296
 1  15.25166788438844 -2.28984860346035  0.78472117341734
 1  16.09438663026303  1.52815590429043  0.09540338393839
 1  16.10243656635664  0.07111092019202  1.25305730253025
 1  18.03564964226423 -0.79436791539154 -0.32911759645965
 1  17.46913963936394  0.47729069216922 -1.25471277587759
 1  18.44681638753876  2.33927265496550  0.55218171317132
 1  18.89523253745375  0.89374821162116  1.59499075467547
 1  20.54365259505951  0.12254298799880 -0.50203726662666
 1  19.95639833703370  2.98759089118912 -1.51054602880288
 1  21.17393591079108  2.08325392919292 -2.00425574897490
 1  19.39736797259726  1.49613965056506 -2.20434561576158
 1  21.50720573367337  1.40691024132413  1.82054598239824
 1  22.11007484918492  2.10673879047905  0.18682058185819
 1  20.89069673237324  3.15196486698670  1.08029063346335
 1 -6.87693147564756  1.66614088608861  0.46903015981598
 1 -7.61384275087509 -0.37118199379938 -0.04951827202720

