%nproc=4
%Mem=2GB
# td=(NStates=1) B3LYP/SVP 

TD

0 1
 6 -5.09581243174317 -1.95617542354235  0.37275590069007
 6 -4.70999715791579  2.73691392039204  1.34933160926093
 6 -9.28680792439244  3.36626282258226 -0.11017563376338
 6 -9.81049290039004 -1.34241583618362 -1.01952809820982
 7 -5.17384413241324  0.37079354045405  0.79930738873887
 6 -4.44663276087609 -0.73351233483348  0.80745683128313
 6 -2.98656040974097 -0.65953643714371  1.34049729912991
 6 -3.04161831423142  0.79917503510351  1.90351485688569
 6 -4.41087604570457  1.44406145154515  1.34967687908791
 6 -2.97620411831183  1.01669997099710  3.40615047304730
 6 -2.04804014681468 -0.85248026212621  0.16132273997400
 6 -0.64066245434543 -0.73256211101110  0.60293805890589
 6  0.39286379227923 -1.00777769506951 -0.46388224542454
 8  0.13322305820582 -1.42243193309331 -1.60259271387139
 8  1.69723479867987 -0.95568198669867 -0.09627461946195
 7 -7.02615579657966  2.71555629752975  0.48368896289629
 6 -5.83023720472047  3.36336306880688  0.91951607700770
 6 -6.12843411591159  4.81656974077408  1.00311186288629
 6 -7.41434449894990  4.98969029202920  0.58396362646265
 6 -7.99673512391239  3.64626322522252  0.22363369966997
 6 -5.14497365376538  5.74669845224522  1.54642064596460
 6 -8.04327091529153  6.29404912261226  0.31773682798280
 6 -9.04745226802680  6.52725201580158 -0.52902151845185
 7 -9.16796019531953  0.91873034763476 -0.50116709210921
 6 -9.81002277967797  2.13330663236324 -0.55011382208221
 6 -11.21521775977598  1.97814145364536 -0.89790386168617
 6 -11.39518495899590  0.63061710311031 -1.20443050465047
 6 -10.04377108550855  0.04231718231823 -0.94429791019102
 6 -12.23170736793679  3.02849541864186 -1.08896332543254
 6 -12.59301939933993 -0.06220531893189 -1.63488572357236
 6 -12.46334080368037 -0.66329097549755 -3.07651483588359
 7 -7.47233035873587 -1.23635795029503 -0.32082842794279
 6 -8.58404438993899 -2.00596721092109 -0.69650657905791
 6 -8.19250285748575 -3.35293989548955 -0.78512225072507
 6 -6.83937596579658 -3.36319220352035 -0.38089019431943
 6 -6.43996253585359 -2.03432523162316 -0.04113195909591
 6 -9.07438142324232 -4.61365476547655 -1.08588109490949
 6 -5.80048617011701 -4.26760198709871 -0.12076940734073
 8 -5.72370422652265 -5.48908541724172 -0.18394147374737
 6 -4.53731933653365 -3.32851996469647  0.30327557715772
 6 -4.11399381418142 -3.88688238343834  1.76896878217822
 8 -4.44468708040804 -3.48309926582658  2.81014147814781
 8 -3.25304782048205 -4.91991227252725  1.60656639963996
 6 -2.77989151945194 -5.47673857915792  2.81574804510451
 6  2.71108115151515 -1.18458714931493 -1.09991419671967
 6  4.09104321412141 -0.81177580098010 -0.46025263846385
 6  4.98016031623162  0.08126717431743 -1.00072547714771
 6  4.82497300750075  1.09088292999300 -2.10500303930393
 6  6.36948066016602  0.30473310161016 -0.19338080118012
 6  7.58515274247425 -0.50337967106711 -1.01625897929793
 6  8.77759123612361 -0.29714492139214 -0.18151303120312
 6  10.03438529322932 -0.71943642624262 -0.86552753265327
 6  9.97300109350935 -2.31506667246725 -1.00438455315532
 6  11.30748142274227 -0.30304997559756  0.07435496749675
 6  12.73205178977898 -0.65815429382938 -0.60715859305931
 6  13.80622702990299 -0.00594329742974  0.16668303090309
 6  15.31442326342634 -0.24838787458746 -0.22447628342834
 6  15.69876720432043 -1.78136229812981 -0.18188792429243
 6  16.25579817701770  0.67322823402340  0.50552381678168
 6  17.62442928162816  0.62885861976198 -0.16241074887489
 6  18.57950780178018  1.65532415141514  0.58945763866387
 6  19.91622151805181  1.72401802710271 -0.11868910851085
 6  19.96059698919892  2.41877130833083 -1.46259266826683
 6  20.88787925352535  2.57832156825683  0.79115551625163
 1 -3.82625079267927  3.25636202050205  1.69281151945195
 1 -10.20494807980798  4.15134457095710 -0.09279795369537
 1 -10.75373371327133 -1.89724573457346 -1.19621951585158
 1 -2.79518557005701 -1.23915427952795  2.11535333003300
 1 -2.13996456405641  1.32155210631063  1.38872837123712
 1 -2.12013952985299  0.51851927362736  3.80247697299730
 1 -2.86855015531553  2.03499814341434  3.60531963316332
 1 -3.95177575697570  0.61116181848185  3.86698554425443
 1 -2.05222467636764 -1.77914179187919 -0.38339519581958
 1 -2.35783172177218 -0.02485501120112 -0.64764342504250
 1 -0.26772109550955  0.17201132703270  1.05859188968897
 1 -0.40774378727873 -1.68160734073407  1.37155427442744
 1 -4.19187384478448  5.80815895349535  0.72707584558456
 1 -5.65229644844484  6.82186730543054  1.51455705270527
 1 -4.87135891289129  5.62894274367437  2.58913997459746
 1 -7.74198429732973  7.07531456515652  0.95788709500950
 1 -9.46266165896590  5.74641262676268 -1.20850024602460
 1 -9.53353763296330  7.63382866816682 -0.43243294739474
 1 -12.30528507590759  3.61880237873787 -0.14022642124212
 1 -11.99915883818382  3.71273623832383 -1.92135935343534
 1 -13.28418581858186  2.57550316851685 -1.39126217311731
 1 -12.73298812471247 -1.16508663496350 -1.01374594839484
 1 -13.56385712801280  0.55374503590359 -1.46876055335534
 1 -12.52061657665767  0.29975699079908 -3.69615845924592
 1 -11.64413062076208 -1.40216961336134 -3.35924672137214
 1 -13.43647172037204 -1.18243560166017 -3.24469832853285
 1 -9.98949649644965 -4.57717980988099 -0.58508431233123
 1 -9.30516242644264 -4.72130914441444 -2.17991851245124
 1 -8.46818852435244 -5.57391817171717 -0.68027268076808
 1 -3.74724045134513 -3.42807015831583 -0.45702876267627
 1 -1.88381524952495 -6.12532913661366  2.55737144114411
 1 -2.37235380708071 -4.71255099409941  3.51645609590959
 1 -3.62480353575358 -6.13134013401340  3.18063958415842
 1  2.68027981978198 -2.13986072717272 -1.22999013231323
 1  2.43803564646465 -0.44347578557856 -1.96833445274527
 1  4.32363379927993 -1.41484955545555  0.39993903830383
 1  4.77577284178418  2.22185988378838 -1.81462404980498
 1  5.63928089188919  0.80793674887489 -2.84610767786779
 1  3.75761224642464  1.04635744164416 -2.40511586848685
 1  6.75506560366037  1.20245338923892 -0.05397059745975
 1  6.26411423722372 -0.07437302260226  0.98480817491749
 1  7.23295394849485 -1.60521456685669 -1.07784263036304
 1  7.46358610971097 -0.15947044244424 -2.10524938263826
 1  8.92582702430243  0.86206405790579 -0.06114485598560
 1  8.59270200010001 -0.69318640564056  0.78565141804180
 1  10.06650351565156 -0.08683848554855 -1.93223394629463
 1  9.14099128672867 -2.57011567436744 -1.56309553505351
 1  11.04945180618062 -2.71331300770077 -1.35868161376138
 1  10.18339678147815 -2.87690956845685 -0.04332785428543
 1  11.29707389748975  0.87694531833183  0.22506596919692
 1  11.08550612001200 -0.85980446594659  1.03448397009701
 1  12.79193570157016 -1.80698457745775 -0.79991343414341
 1  12.87831814841484 -0.13587085998600 -1.61973529202920
 1  13.64500553605360  1.01137153295329  0.27897307140714
 1  13.64316915241524 -0.45772872687269  1.21993156935694
 1  15.38120961836184 -0.05694249444945 -1.34459110891089
 1  15.09521491649165 -2.35483376717672 -0.87799181968197
 1  16.68994573087309 -1.78244408390839 -0.55980737333733
 1  15.49327204480448 -2.27464708330833  0.78050075137514
 1  15.85972316391639  1.77258034673467  0.45209905350535
 1  16.05082140484048  0.32074588368837  1.56573857065707
 1  18.26247232453245 -0.36299477807781 -0.12045673037304
 1  17.44498722412241  1.07593055615561 -1.04699200380038
 1  17.95715742164217  2.50745947364737  0.69354584958496
 1  18.72801581578158  1.33965280208021  1.63871512711271
 1  20.33765199499950  0.58209894359436 -0.22477954085408
 1  19.32741543874388  3.51901403350335 -1.43317829202920
 1  21.08339685688569  2.41704730853085 -2.05879120252025
 1  19.38488672447245  1.99445948254825 -2.31911709290929
 1  21.27191220432043  2.10294984528453  1.68678260606061
 1  21.86821066276628  2.89000711731173  0.27136903670367
 1  20.31807947064707  3.46344601510151  0.82524512891289
 1 -7.15833961646165  1.62482675467547  0.44470772757276
 1 -7.70876224282428 -0.26430130573057 -0.31999531973197

