%nproc=4
%Mem=2GB
# td=(NStates=1) B3LYP/SVP 

TD

0 1
 6 -5.05239809030903 -1.95294510051005  0.54933355845585
 6 -4.76729288748875  2.70217044604460  1.38655533163316
 6 -9.28415765936594  3.40605680198020 -0.27643225942594
 6 -9.82378422952295 -1.41617321192119 -0.85169131453145
 7 -5.20025677367737  0.38466492759276  0.93265072307231
 6 -4.45133323092309 -0.75225420902090  0.93967005260526
 6 -3.03644539823982 -0.59241972547255  1.31632488188819
 6 -3.06482063446345  0.89257437503750  1.97971247664766
 6 -4.39663462156216  1.34981202660266  1.43159507090709
 6 -2.92280877877788  0.82994129512951  3.45690554855486
 6 -2.04182952575257 -0.68539355345535  0.09372598029803
 6 -0.57059544764476 -0.77843669846985  0.48915668076808
 6  0.26324082998300 -1.08595551285128 -0.73451930913091
 8 -0.08566883098310 -1.22177186708671 -1.86759921452145
 8  1.56555163036304 -1.01401782028203 -0.36958195019502
 7 -7.10896407740774  2.72988773067307  0.42286288028803
 6 -5.91587576857686  3.34891162366237  0.95701982738274
 6 -6.16830810331033  4.79524760856086  1.10104165586559
 6 -7.50190325482548  5.00418174117412  0.69853508360836
 6 -7.97434288468847  3.70671927082708  0.18944028032803
 6 -5.32332148854885  5.86585036743674  1.57806381028103
 6 -8.06797338553855  6.34056377407741  0.34847990229023
 6 -8.86191371417142  6.85729502010201 -0.61760037633763
 7 -9.13678707800780  0.94579305390539 -0.62355933133313
 6 -9.80996277367737  2.16498980068007 -0.59629844054405
 6 -11.17094333233323  1.87890152965296 -1.01849592089209
 6 -11.39668510901090  0.49177321872187 -1.10876093769377
 6 -10.10702741114111  0.00840379097910 -0.83766724712471
 6 -12.27055125232523  3.01747431653165 -1.15837026612661
 6 -12.53783388078808 -0.22554165256526 -1.69029126412641
 6 -12.54432890249025 -0.53207785418542 -3.12523970837084
 7 -7.52750587628763 -1.35012932743274 -0.04698104320432
 6 -8.55419140464046 -2.01777839203920 -0.56440336873687
 6 -8.22770637783778 -3.39527412891289 -0.68415215371537
 6 -6.84151617981798 -3.43264914921492 -0.28214031933193
 6 -6.44880341994199 -2.11468326742674  0.17822997709771
 6 -8.99525351045104 -4.58963236323632 -1.18837134393439
 6 -5.64657077857786 -4.32305753265327 -0.05850318071807
 8 -5.50408226432643 -5.58772528122812 -0.06696977657766
 6 -4.40252585718572 -3.29621673437344  0.53538878847885
 6 -3.95500791559156 -3.81771546674667  1.86361824712471
 8 -4.23812642434243 -3.28584954085409  2.88682914691469
 8 -3.12569508520852 -4.86697697899790  1.63032877587759
 6 -2.52067559785979 -5.41127203250325  2.83613008330833
 6  2.71181122452245 -0.96706539713971 -1.36052025732573
 6  3.97773188298830 -0.88223284668467 -0.69150576377638
 6  4.90084238443844  0.04711375897590 -1.08913431803180
 6  4.88371888208821  1.00435427712771 -2.39042158115812
 6  6.19116282838284  0.07697032533253 -0.33979544264426
 6  7.53055728292829 -0.33579291239124 -1.11835918931893
 6  8.74806828382838 -0.35949115601560 -0.25701058095810
 6  10.05673752845285 -0.87132161476148 -0.92880386028603
 6  10.12459625302530 -2.31408657445745 -1.05200931563156
 6  11.29670034463446 -0.32578224882488 -0.11326379437944
 6  12.66976556115612 -0.75510398879888 -0.58515639283928
 6  13.82123853105310 -0.16474917801780  0.28807517011701
 6  15.20467228832883 -0.30305334113411 -0.29056289208921
 6  15.61241856945695 -1.86093025492549 -0.38665840134013
 6  16.30883348054806  0.41297220842084  0.56052931733173
 6  17.61117795649565  0.69349508340834 -0.19387389518952
 6  18.43655350635063  1.58015663466347  0.65802449534954
 6  19.94123401930193  1.85642126742674  0.12047480788079
 6  19.97049797929793  2.56928635983598 -1.21401781078108
 6  20.74751521712171  2.65718945504550  1.17677407810781
 1 -3.97810597819782  3.24714109840984  1.85870810911091
 1 -9.98312589758976  4.26519595609561 -0.44568324222422
 1 -10.68411675157516 -1.95512152215222 -1.29918981288129
 1 -2.69613566506651 -1.21876224032403  2.05908770347035
 1 -2.29014958255826  1.37248719981998  1.55061455985599
 1 -1.81073858975898  0.48201562326233  3.85405213051305
 1 -3.04277757805781  1.92103674727473  3.81184028522852
 1 -3.68942952235223  0.07068777107711  3.99549839553955
 1 -2.29687914181418 -1.34241811951195 -0.64973182948295
 1 -2.25000093869387  0.28530600490049 -0.59408806950695
 1 -0.32166649004901  0.27427155305531  0.94754078457846
 1 -0.12192520542054 -1.56675585558556  1.37672479147915
 1 -4.26387104450445  5.70559869746975  1.13330646864686
 1 -5.66522774157416  6.90893601230123  1.22183778077808
 1 -5.16444822182218  5.89499934933493  2.63629469006901
 1 -7.64619471837184  7.12927996169617  0.87635894219422
 1 -9.42881827462746  6.33527151265127 -1.44221361736174
 1 -9.11058533773377  7.70660594589459 -0.60952065616562
 1 -12.34074862226223  3.64031452995300 -0.24740713931393
 1 -12.04501342364236  3.66414137883788 -2.06243346084608
 1 -13.24842224222422  2.53933955215522 -1.17924097099710
 1 -12.58372319821982 -1.12307243354335 -1.08797337113711
 1 -13.44609535183518  0.25763542494249 -1.29320299759976
 1 -12.40536505150515  0.55289230433043 -3.86982582598260
 1 -11.38553476117612 -0.82361175757576 -3.30368116481648
 1 -13.33902197539754 -1.06932429052905 -3.58462232093209
 1 -10.16282382918292 -4.71014310621062 -0.86574237813781
 1 -9.09711162136214 -4.41977899139914 -2.37007752835284
 1 -8.47522922842284 -5.43541432133213 -0.91636629012901
 1 -3.67623335063506 -3.58800615191519 -0.32560562036204
 1 -1.78032490049005 -6.05852245594559  2.46646235023502
 1 -2.04206077777778 -4.50660039903990  3.38699314961496
 1 -3.28833988938894 -5.86214321432143  3.26259777997800
 1  2.28675046684668 -2.03134987608761 -1.93935106840684
 1  2.58771061396140 -0.21224266226623 -2.32268988828883
 1  4.17554899079908 -1.44927299779978  0.29443848824883
 1  5.28806407090709  1.93788148594859 -2.01686427382738
 1  5.48445540934093  0.55903185838584 -3.36484955205521
 1  3.88335482068207  1.20078288418842 -2.72531788868887
 1  6.32562265936594  1.19914305820582  0.11421622122212
 1  6.08743656945695 -0.72453803910391  0.55643533763376
 1  7.49499015211521 -1.37380142554255 -1.59910475657566
 1  7.75930568166817  0.42002750735073 -2.15572443014301
 1  8.95104954655466  0.46525437693769  0.27016827532753
 1  8.67314004390439 -1.00418750575058  0.53068592149215
 1  9.92320918621862 -0.19096889858986 -1.74697542044204
 1  9.24556174377438 -2.87388605140514 -1.68235746124612
 1  10.84861172217222 -2.60811248764876 -1.71755750135014
 1  10.31472991479148 -3.04492637013701 -0.19230275177518
 1  11.01259544964496  0.64182180598060  0.06350981358136
 1  11.29647721712171 -0.65103358885889  0.86358688038804
 1  12.84495100310031 -2.03163704270427 -0.40958440124012
 1  12.77607792439244 -0.45933320622062 -1.60882420092009
 1  13.53928496399640  0.86037643344334  0.54420959505951
 1  13.77406224172417 -0.32608556255625  1.35751532773277
 1  15.46380787818782  0.10620382018202 -1.26141279107911
 1  14.92070746574658 -2.36270455425543 -1.24074809530953
 1  16.56636337263727 -1.87619345884588 -0.91970336293629
 1  15.38956167376738 -2.21445106370637  0.60125282658266
 1  15.76883407500750  1.37248033673367  0.68479232283228
 1  16.60259658235824 -0.29843603450345  1.66146814361436
 1  18.27988406570657 -0.15891437003700 -0.30845553025302
 1  17.52139486488649  1.16183914701470 -1.01380868546855
 1  18.12609431533154  2.67928665636564  0.76074256925693
 1  18.56947996219622  0.99114795159516  1.76937819341934
 1  20.35443367316732  0.86709744344434 -0.16014307720772
 1  19.25098779597960  3.45651778387839 -1.12795776997700
 1  21.00512903010301  3.05052065586559 -1.43087841124112
 1  19.47738597439744  2.06204624122412 -2.21203638483848
 1  20.35080009310931  2.45762531283128  2.19649357715772
 1  21.81274511621162  2.51620973757376  1.14134603440344
 1  20.40173783648365  3.68456812731273  0.73015561996200
 1 -7.19562334483448  1.85640991299130  0.17930118691869
 1 -7.67552891949195 -0.35776065166517  0.03719039883988

