%nproc=4
%Mem=2GB
# td=(NStates=1) B3LYP/SVP 

TD

0 1
 6 -5.07584043454345 -1.97628743474347  0.48935756085609
 6 -4.70180633883388  2.69197942694269  1.50732740884088
 6 -9.23910315391539  3.35084128042804 -0.45853046924692
 6 -9.76834868596860 -1.44026562116212 -1.19914606000600
 7 -5.18558530653065  0.40685714681468  0.90427788578858
 6 -4.53089118671867 -0.71437042064206  0.81218730433043
 6 -3.11038279197920 -0.62985346884688  1.29728297769777
 6 -3.10592474487449  0.86610172777278  1.91385589098910
 6 -4.32851780988099  1.37110415581558  1.40142205360536
 6 -2.90873737163716  0.96266456745675  3.49705956395640
 6 -2.06702204500450 -0.74605962006201  0.19644625232523
 6 -0.60474886298630 -0.79799865466547  0.74659242434243
 6  0.39000350625063 -1.03575049234923 -0.43077893509351
 8  0.09556929282928 -1.30474016391639 -1.58372082668267
 8  1.56970204540454 -0.74567098559856 -0.08690368236824
 7 -7.00825400640064  2.75885062696270  0.37942853685369
 6 -5.95071925292529  3.36896362886289  1.07543166856686
 6 -6.20120139263926  4.77644572837284  1.03309486118612
 6 -7.54574763926393  4.99945126812681  0.55476070617062
 6 -7.96557200760076  3.66950554945495  0.17873921022102
 6 -5.21651080748075  5.81679546194619  1.59338534243424
 6 -8.30245683388339  6.27008672637264  0.51845689999000
 6 -9.28000552335233  6.56147543814381 -0.39147776407641
 7 -9.20085348464847  0.87456593119312 -0.49578655405541
 6 -9.91061283868387  2.01949525122512 -0.57224603530353
 6 -11.27109334733473  1.92825646514651 -1.06919099039904
 6 -11.32407784828483  0.60276431783178 -1.45722578417842
 6 -10.05411211961196 -0.00914796419642 -1.02504598499850
 6 -12.27277147434743  2.97282985208521 -1.26135056415642
 6 -12.56514661206121 -0.21841093949395 -1.80515275027503
 6 -12.76762123172317 -0.35410005640564 -3.34815199959996
 7 -7.40194332003200 -1.24828914341434 -0.20381672677268
 6 -8.51926791229123 -1.98148476267627 -0.76125305370537
 6 -8.08059166636664 -3.38865346684668 -0.75823956245625
 6 -6.80705273347335 -3.48974485878588 -0.25128723402340
 6 -6.38257679727973 -2.09166096519652  0.02245439953995
 6 -8.99314329942994 -4.53037643764376 -1.31509401620162
 6 -5.68520464196420 -4.31002622952295  0.08123079267927
 8 -5.58613046914691 -5.57444395309531 -0.07603068266827
 6 -4.47233283788379 -3.41638875157516  0.45428067766777
 6 -4.00645306010601 -3.88182187738774  1.81578346364637
 8 -4.32365497719772 -3.48608956485649  2.93501396539654
 8 -3.07410992669267 -4.90768104940494  1.67111285428543
 6 -2.62217574787479 -5.57551845714571  2.91483795409541
 6  2.61881192459246 -1.02442113271327 -1.11928613391339
 6  4.00815492529253 -0.71396602000200 -0.52230884408441
 6  4.99065136533653  0.16193524112411 -1.00830623522352
 6  4.88892940314031  0.95219906160616 -2.29941248024802
 6  6.19885359745975  0.36181881018102 -0.04504596769677
 6  7.30673490069007 -0.33166249934993 -0.82749010241024
 6  8.73737721472147 -0.22856806370637 -0.00636551645165
 6  9.96154800950095 -0.68604308690869 -0.71789276917692
 6  9.97860165356536 -2.32540770657066 -0.67996211091109
 6  11.24839551415142 -0.22153182378238  0.00280781278128
 6  12.64843342794279 -0.37187566596660 -0.80068794599460
 6  13.88259466666667  0.08929622652265  0.07305366796680
 6  15.22435425652565 -0.17652068786879 -0.51146498229823
 6  15.54246157375738 -1.66510067196720 -0.54394412991299
 6  16.29552214941494  0.67730864206421  0.25424868926893
 6  17.76143298199820  0.48515424932493 -0.28089259705971
 6  18.65857570857085  1.53620223922392  0.45684437733773
 6  20.11663155905590  1.53141876717672 -0.00564780438044
 6  20.37599852935294  1.99645907710771 -1.42602901190119
 6  20.94299476507651  2.38088182428243  0.91194759545955
 1 -4.05575374297430  3.53299968426843  1.89913215151515
 1 -10.10399798479848  4.08357779427943 -0.66057473137314
 1 -10.58239657955796 -1.98367437743774 -1.66613650755076
 1 -2.69688574007401 -1.35059542364236  2.07518931363136
 1 -2.22537310491049  1.46447639873987  1.43039253765377
 1 -1.82916043194319  0.78178560026003  3.73473019831983
 1 -3.11764506480648  1.93037768136814  4.01156025722572
 1 -3.52070264966497  0.26884758705871  3.95209405510551
 1 -2.29676913081308 -1.73099697739774 -0.09730658695870
 1 -2.24695063366337 -0.01249377507751 -0.61248990969097
 1 -0.22928725212521  0.10050417631763  1.36197222772277
 1 -0.72740575347535 -1.50596977697770  1.71336845584559
 1 -4.06702135953595  5.52379051665166  1.28827196519652
 1 -5.56864808360836  6.90942606130613  1.03149874687469
 1 -5.37599937693769  5.90682053145315  2.82307336793679
 1 -7.95107520642064  6.96961399509951  1.41017232353235
 1 -9.67294268706871  5.90740872637264 -1.25663505950595
 1 -9.81430570977098  7.44106939223922 -0.12057176127613
 1 -12.44854940234023  3.32773327182718 -0.17216961556156
 1 -11.94898382068207  3.68534349904990 -2.10663788128813
 1 -13.43076047604761  2.50432605080508 -1.30131317821782
 1 -12.57149197509751 -1.27587771407141 -1.59726430023002
 1 -13.50575131743174  0.12787244864486 -1.50622429972997
 1 -12.86232074707471  0.63766078117812 -3.90393923732373
 1 -12.03185939363936 -0.97168656505651 -3.81159195589559
 1 -13.61915998919892 -0.87630498859886 -3.87051090979098
 1 -9.87137468426843 -4.96701879377938 -0.65381118501850
 1 -9.38277018721872 -4.16463347684769 -2.37135765636564
 1 -8.25209691519152 -5.27261804170417 -1.61148580208021
 1 -3.62012774007401 -3.72603995529553 -0.34944800460046
 1 -1.94424129212921 -6.36048265196520  2.61120682468247
 1 -2.18520509220922 -4.95128486748675  3.55391984228423
 1 -3.43828488388839 -5.89719671967197  3.42535405560556
 1  2.49910170197020 -2.13538027912791 -1.35607274057406
 1  2.40963280618062 -0.41729316731673 -1.91015863516352
 1  4.19002043794379 -1.07357542804280  0.59182822722272
 1  4.84801006550655  2.09326702450245 -2.00542312971297
 1  5.72608957275728  0.84640059525952 -3.08379144624462
 1  3.74890137533753  0.92708551445145 -2.78039339623962
 1  6.59404950205021  1.39658280218022  0.27121192079208
 1  6.06475430123012 -0.13350893619362  0.74721441554155
 1  7.11961261436144 -1.36459050445044 -1.02237708380838
 1  7.43120287138714  0.16726223082308 -1.85388424612461
 1  8.72157659925993  1.02023987548755  0.18647990649065
 1  8.60779350925093 -0.67414450145014  0.91384423732373
 1  9.97185405070507 -0.40221002270227 -1.72722344524452
 1  8.97110429802980 -2.57677634043404 -1.30022924842484
 1  10.73831069206921 -2.71420309670967 -1.06475222082208
 1  9.95213365516552 -2.61834371187119  0.48577505600560
 1  11.23205739583958  0.99182680648065  0.18222168476848
 1  11.25524309370937 -0.77751623712371  0.91219174087409
 1  12.84191069906991 -1.47730160916092 -1.18647209000900
 1  12.54196451305130  0.25273800090009 -1.70604392289229
 1  13.72852388788879  1.17867826362636  0.38845401950195
 1  13.71177601310131 -0.43522647664767  1.08914849104910
 1  15.13445494289429  0.13638683848385 -1.55429207900790
 1  14.82869826482648 -2.14192247604761 -1.21208522902290
 1  16.56490322662266 -1.78606444594459 -1.06650804340434
 1  15.53413613121312 -2.13887350595059  0.41528422972297
 1  16.02910010161016  1.75158824752475  0.40880472407241
 1  16.30143646634664  0.35939974907491  1.45552754955496
 1  17.97728380568057 -0.59338781738174  0.02028734403440
 1  17.89309203460346  0.66109907300730 -1.43582088668867
 1  18.22048375427543  2.48243697139714  0.43658015301530
 1  18.71487450165016  1.12608144494449  1.65977723332333
 1  20.31786001580158  0.50623135683568  0.24790772787279
 1  19.93115581278128  3.06360849294930 -1.55352032623262
 1  21.44996351355135  2.03694929872987 -1.64275959935994
 1  19.83536177197720  1.17850788738874 -2.12391757295730
 1  21.04921993509351  1.77571712201220  1.96007993579358
 1  22.01812565426543  2.43203131973197  0.60772267206721
 1  20.42199986268627  3.38269794029403  1.07334993939394
 1 -6.94917870037004  1.69521379337934  0.15084834163416
 1 -7.62068343494349 -0.19157403300330 -0.11532485268527

