%nproc=4
%Mem=2GB
# td=(NStates=1) B3LYP/SVP 

TD

0 1
 6 -5.23568641914191 -1.94503430943094  0.44658328342834
 6 -4.65065122332233  2.68703893289329  1.39711638773877
 6 -9.30306955055505  3.40518671497150 -0.27841245744574
 6 -9.86160801190119 -1.40383197779778 -1.12525867126713
 7 -5.17156390439044  0.46436289738974  0.84513197119712
 6 -4.52395049264927 -0.70617960156016  0.92773885948595
 6 -3.10794254795480 -0.70054053755376  1.31080432983298
 6 -3.08640279267927  0.77873299089909  1.87942244764476
 6 -4.44013897199720  1.34614165956596  1.34081599299930
 6 -3.08117461536154  0.78182648364836  3.37502736073607
 6 -1.98908425122512 -0.99033404750475  0.06828343604360
 6 -0.60537892599260 -0.88391724652465  0.71552931803180
 6  0.39552405830583 -1.16546346364636 -0.35140099729973
 8  0.10744047994799 -1.47595728562856 -1.57229968456846
 8  1.67281235643564 -0.85611202970297 -0.02973796579658
 7 -7.00117329832983  2.75194993689369  0.50786138013801
 6 -5.79404358535854  3.37511424392439  1.04341846724672
 6 -6.07031830433043  4.76251433523352  0.97892944464446
 6 -7.41235429992999  4.96482780578058  0.54370960106011
 6 -7.92203765416542  3.73465206410641  0.24720605690569
 6 -5.07861701810181  5.81247502990299  1.34136013991399
 6 -7.93548013621362  6.34352407010701  0.22903795809581
 6 -8.99806732953295  6.71301059165917 -0.55718433473347
 7 -9.18053145244524  0.91853032763276 -0.59725670107011
 6 -9.71196297369737  2.12275557725773 -0.65883469416942
 6 -11.08913515151515  1.92764640414041 -0.97432150345035
 6 -11.34116955745575  0.62493653505351 -1.18771883348335
 6 -10.13196990539054  0.04046699729973 -0.97869134953495
 6 -12.12524672187219  3.02792536163616 -1.13464789388939
 6 -12.65078517591759 -0.00187928632863 -1.66754898989899
 6 -12.80052452205221 -0.40829547594759 -3.13002018641864
 7 -7.55774890059006 -1.25076939143914 -0.19319566466647
 6 -8.64115010051005 -2.00551716591659 -0.73513044144414
 6 -8.25447905510551 -3.36390099159916 -0.63962770127013
 6 -6.99268129632963 -3.42228811311131 -0.13961606690669
 6 -6.53915245484548 -2.08134993409341  0.07420957505751
 6 -9.09202318741874 -4.50724412441244 -1.01670417721772
 6 -5.84784090559056 -4.26869209610961 -0.01685901630163
 8 -5.81629348544855 -5.51857836653665 -0.06050913051305
 6 -4.64720032463246 -3.38641575427543  0.42668791839184
 6 -3.98871128592859 -3.87930162536254  1.62045393069307
 8 -4.29900251195119 -3.55062601850185  2.78993945794579
 8 -3.19187170287029 -4.82171245254526  1.41490723372337
 6 -2.47849137943794 -5.48540944624462  2.53368983928393
 6  2.64857490089009 -1.17460615121512 -1.02787699299930
 6  3.94617872767277 -0.97663228662866 -0.45151176437644
 6  4.90651295149515 -0.08953990639064 -0.96453185778578
 6  4.78570908110811  0.83758760046005 -2.03797633663366
 6  6.19853356545655 -0.02312968466847 -0.05575703880388
 6  7.46383061026103 -0.45381471457146 -0.77958531193119
 6  8.73003648064807 -0.42618782568257  0.01804692479248
 6  10.11338319301930 -0.79461394399440 -0.80631161106111
 6  10.16829062246225 -2.23161832763276 -1.27166128082808
 6  11.28901957655765 -0.42320199079908  0.02768030003000
 6  12.64977356195620 -0.65023350175018 -0.80080795799580
 6  13.76477288448845  0.17217451435144 -0.00903454085409
 6  15.29619144024402  0.03034999919992 -0.50455429122912
 6  15.58877620522052 -1.53440760266027 -0.40353008850885
 6  16.24984758195820  0.90246115731573  0.30375363976398
 6  17.70775761446145  0.84431016491649 -0.25842034983498
 6  18.56605645664566  1.74591321032103  0.56906559945995
 6  20.05661555745575  1.75520114541454  0.10898365876588
 6  20.33341427092709  2.20530996219622 -1.35352176117612
 6  20.93968443404340  2.60602433853385  1.12977937863786
 1 -3.76219438703870  3.38936532083208  1.74879711801180
 1 -9.86345393039304  4.27673711021102 -0.50393906780678
 1 -10.70331867176718 -1.97834384438444 -1.55038493239324
 1 -3.00829688118812 -1.41148151225123  2.19091088578858
 1 -2.26510707830783  1.36654660576058  1.63050254865487
 1 -2.25887340324032  0.32614003570357  3.80105683098310
 1 -3.06417971827183  1.87461210481048  3.77776687788779
 1 -3.76702728212821  0.27124782708271  3.87239608530853
 1 -2.21799125302530 -2.01973585128513 -0.14388124442444
 1 -2.05126106470647 -0.24210673637364 -0.64573323402340
 1 -0.56424074747475  0.21198532443244  0.93127915841584
 1 -0.34806781968197 -1.50767994799480  1.44206132513251
 1 -4.36238089548955  5.78290642824282  0.79991312931293
 1 -5.41313253205321  6.85138025672567  1.08019361636164
 1 -4.63997577457746  5.59998984838484  2.22086314691469
 1 -7.50147024592459  7.26920395409541  0.81668297459746
 1 -9.57453284608461  5.94743272877288 -1.13316271227123
 1 -9.29035331453145  7.81862714801480 -0.46671637573757
 1 -12.51018556595660  3.46162666116612 -0.06294869346935
 1 -11.75124404670467  3.82754771947195 -1.80883810131013
 1 -12.93653105310531  2.44457007520752 -1.60714376127613
 1 -12.89552437833783 -0.94580470677068 -1.05826039983998
 1 -13.44927566986699  0.76742640404040 -1.20784446174617
 1 -12.61909642464246  0.40472748784878 -3.84964380778078
 1 -11.93987019471947 -0.98909830623062 -3.42658345504551
 1 -13.75809388258826 -1.03392075017502 -3.27861171987199
 1 -9.75815336213621 -4.71861395329533 -0.17034283818382
 1 -9.76600851105110 -4.46296330983098 -2.06036655725573
 1 -8.65489719521952 -5.38118889878988 -0.87827248074807
 1 -3.81247697499750 -3.30075742704270 -0.43032609240924
 1 -1.87923479147915 -6.14898150185018  1.87144284828483
 1 -2.00244681638164 -4.82250198919892  3.22418686898690
 1 -3.29891094649465 -5.95398239823982  3.20533205340534
 1  2.58596038783878 -2.20082682378238 -1.41080821412141
 1  2.58021986488649 -0.61438287628763 -1.81012863216322
 1  4.13593502940294 -1.55955402590259  0.51696074047405
 1  5.02987825232523  1.90300799859986 -1.95454804220422
 1  5.36608357215722  0.57439339453945 -3.06991005810581
 1  3.72411889708971  0.85584839073907 -2.33411876877688
 1  6.60222031913191  1.03634677857786  0.33783858345835
 1  5.74323214901490 -0.45333091839184  0.88531822592259
 1  7.04910556365637 -1.51655570097010 -0.98302314841484
 1  7.56397614871487  0.15450095469547 -1.66886574427443
 1  8.89953439503950  0.62190004150415  0.45724698319832
 1  8.55380811071107 -1.11131821882188  0.85227808070807
 1  10.17251411671167 -0.19574937663766 -1.67503822672267
 1  9.21138832643264 -2.57547621042104 -1.82998222372237
 1  10.95485234623462 -2.42737441384138 -1.82777852345235
 1  10.34323276507651 -2.80400227772777 -0.26384990649065
 1  11.07607179727973  0.61998962276228  0.30652411501150
 1  11.23550111951195 -1.06032451795180  0.88183870557056
 1  12.97657416541654 -1.64859873887389 -1.02611605440544
 1  12.50462077867787 -0.14169144204420 -1.71666498499850
 1  13.55280631613161  1.40141053685369  0.06556173027303
 1  13.87222205770577 -0.13645659965997  0.99706928312831
 1  15.47672917031703  0.41476467626763 -1.47265391519152
 1  14.96176157115712 -2.13437172097210 -0.89241326182618
 1  16.50732746904691 -1.95849168866887 -0.67306869946995
 1  15.56194891249125 -1.81970158875888  0.79518221952195
 1  16.03604079567957  1.94023711241124  0.17990183378338
 1  16.24625094779478  0.69118292739274  1.42458445524552
 1  18.03587966526653 -0.27377585618562 -0.12364704940494
 1  17.75250797619762  1.22239520262026 -1.26909421402140
 1  18.20303200910091  2.73072179987999  0.46352284728473
 1  18.47553056725673  1.56625546234623  1.68912016761676
 1  20.36756498629863  0.68117885158516  0.17578051515152
 1  20.05098779597960  3.20134226632663 -1.50563553775378
 1  21.51301981918192  2.18824442824282 -1.58546386978698
 1  20.07346558235824  1.37745778237824 -2.13352853405341
 1  20.87613262636264  2.24697424772477  2.10662459025903
 1  21.91310515221522  2.57604572117212  0.73706560636064
 1  20.60913857655766  3.68243791429143  1.22535513991399
 1 -7.33372715521552  1.74016828882888  0.82425568236824
 1 -7.70749211581158 -0.24610948654866 -0.07228054825482

