%nproc=4
%Mem=2GB
# td=(NStates=1) B3LYP/SVP 

TD

0 1
 6 -4.95350820132013 -1.98676848284829  0.37135576067607
 6 -4.86401255945595  2.78103833283328  1.45796247234723
 6 -9.36152539613961  3.35977217351735 -0.27225184138414
 6 -9.79170102120212 -1.50948254285429 -0.92378852425243
 7 -5.24142089008901  0.37947440854085  1.04630208820882
 6 -4.49538763636364 -0.78898788238824  0.84920100570057
 6 -2.98658041174117 -0.55466595009501  1.32741599099910
 6 -3.04202835523552  0.83428854645465  1.85819032443244
 6 -4.39983494159416  1.41609865526553  1.47629954135414
 6 -2.87362386028603  0.92237053805381  3.42545240324032
 6 -2.07326266906691 -0.74933994809481  0.11860846854685
 6 -0.52799118721872 -0.58582743754375  0.54362212731273
 6  0.35336984288429 -0.96550346764676 -0.51003686088609
 8  0.06865660156016 -1.56673636353635 -1.52098455305531
 8  1.64339941514151 -0.83607002550255 -0.26467145914591
 7 -7.07475065606561  2.79046378827883  0.58374896889689
 6 -6.01363554455446  3.46156288878888  1.11503562896290
 6 -6.23490476297630  4.81356944074407  1.11915346704670
 6 -7.50452351685169  4.94604592759276  0.56178140824082
 6 -8.00707615801580  3.65914451335134  0.18024936123612
 6 -5.19528868526853  5.84698848124812  1.62282828672867
 6 -8.18053464166417  6.19095881358136  0.41102615691569
 6 -8.99799732253225  6.70632992359236 -0.59716833313331
 7 -9.16333973327333  0.94714318891889 -0.63333030843084
 6 -9.84763654105411  2.12769607130713 -0.59200801150115
 6 -11.23074931293129  1.82536617611761 -1.04211828312831
 6 -11.33554899539954  0.57691173257326 -1.26921698329833
 6 -10.09301601000100 -0.03093014241424 -0.92867634803480
 6 -12.25794999219922  3.02578514761476 -1.20406483558356
 6 -12.57675777317732 -0.30498959735974 -1.70488272327233
 6 -12.59422389198920 -0.64080872727273 -3.29374655905591
 7 -7.43392651835184 -1.21934624912491 -0.23161950705071
 6 -8.53994998049805 -1.99668628282828 -0.56616354475448
 6 -8.13071667886789 -3.39223382488249 -0.66149988848885
 6 -6.78129015721572 -3.39967585188519 -0.23362546784678
 6 -6.36895543514351 -2.06610840994099  0.03455560966097
 6 -8.97414139923992 -4.58980238023802 -1.07638014481448
 6 -5.70731685318532 -4.29098432533253  0.01648431803180
 8 -5.59306116221622 -5.49391590029003 -0.16638971857186
 6 -4.41650725532553 -3.36316342904290  0.37846309590959
 6 -3.89218163296330 -3.78619231443144  1.72592447774777
 8 -4.18551116281628 -3.38349930583058  2.79728019201920
 8 -3.12678519421942 -4.86363664496450  1.58124386738674
 6 -2.64805833613361 -5.54079498479848  2.69823629392939
 6  2.68392843624362 -0.93879256985699 -1.30528473377338
 6  4.03538764856486 -0.65616023942394 -0.64053066626663
 6  4.93705600580058  0.13614266186619 -1.17894329892989
 6  4.94151466166617  1.03104694639464 -2.36188872787279
 6  6.15164887698770  0.25886851515151 -0.26845830893089
 6  7.39656388358836 -0.18498783188319 -0.97897525092509
 6  8.73516699369937 -0.19821502840284 -0.13158803870387
 6  10.02673452815282 -0.74746922952295 -0.72295327522752
 6  9.98459225262526 -2.29804497029703 -0.86202031673167
 6  11.25823649824982 -0.41651132173217  0.05848338033803
 6  12.64107269186919 -0.73151162956296 -0.56390426762676
 6  13.68854526172617 -0.04088679177918  0.30486684928493
 6  15.11961378247825 -0.22976601240124 -0.37507134293429
 6  15.48477580518052 -1.76597075897590 -0.38821855735574
 6  16.22557515471547  0.54323523472347  0.39058232263226
 6  17.65232207090709  0.54747048094809 -0.29783429122912
 6  18.63351320232023  1.54418303730373  0.56127482038204
 6  19.95531542744274  1.64197982328233  0.01139389978998
 6  20.04846577607761  2.38691812301230 -1.30429683868387
 6  21.00535100070007  2.33471720782078  0.94993139383938
 1 -3.99455762336234  3.33574995929593  1.90847308560856
 1 -10.00912849784978  4.16691612811281 -0.44236291019102
 1 -10.58121646154616 -2.18401441144114 -1.33572346624662
 1 -2.63010906240624 -1.25563592769277  2.24222601730173
 1 -2.26175674327433  1.36403635473547  1.38823832223222
 1 -2.04182169806981  0.53326074777478  3.84017074237424
 1 -2.99492279257926  1.89111375497550  3.78645774697470
 1 -3.67712829222922  0.57287799009901  3.74527337303730
 1 -2.27651710561056 -1.54823870157016 -0.41408826512651
 1 -2.27194313291329  0.16680415471547 -0.49560822152215
 1 -0.41548587198720  0.38353247914792  0.92497852835284
 1 -0.14311732463246 -1.19275845584558  1.50608772777278
 1 -4.32638729612961  5.89920805840584  1.05881901990199
 1 -5.84484570337034  6.78293341204120  1.36464206120612
 1 -5.25043682068207  5.64777462686269  2.78348940954095
 1 -7.61661176007601  6.95855288898890  1.08526983328333
 1 -9.11048644144415  6.17439542504250 -1.57595699169917
 1 -9.23524780398040  7.62552783808381 -0.55725542964296
 1 -12.45817036443644  3.43634413291329 -0.13362576117612
 1 -12.07382630493049  3.85540050475047 -2.01446866436644
 1 -13.01881928192819  2.44882050025003 -1.61662470937094
 1 -12.47325215111511 -1.31743186948695 -1.10514508830883
 1 -13.64228497079708  0.31681134253425 -1.46751042834283
 1 -12.68454296929693  0.15764277937794 -4.00182902630263
 1 -11.60470667836784 -1.06763616001600 -3.42525332203220
 1 -13.36744481768177 -1.31480883898390 -3.51796565526553
 1 -9.84255180198020 -4.49397148904890 -0.40950675457546
 1 -9.30754266446645 -4.59331634513451 -2.07726824742474
 1 -8.39928163366337 -5.44120490039004 -0.74964961846185
 1 -3.63846957425743 -3.46320367166717 -0.37119017881788
 1 -2.35626249424942 -6.68113471717172  2.42743844784478
 1 -1.68019459115911 -5.09554929392939  3.16175062536254
 1 -3.51186224162416 -5.73426042604260  3.47425894609461
 1  2.67100889268927 -2.03498023912391 -1.63253038633863
 1  2.56952879577958 -0.28903034103410 -2.14930254955496
 1  4.32502393829383 -1.13247131763176  0.21043008740874
 1  4.96794205870587  2.07100479827983 -1.76565915331533
 1  5.88101506530653  1.00747670287029 -2.98259132623262
 1  3.87538402360236  0.92781558745875 -3.13015837273727
 1  6.39329942704270  1.26380952485249  0.04583938353835
 1  5.87236506230623 -0.16017160246025  0.76649634373437
 1  7.23215386848685 -1.28673271867187 -1.26313115921592
 1  7.59914966606661  0.32201770637064 -1.88442730043004
 1  8.79232367396740  0.78746659815982  0.10536179467947
 1  8.63605633553355 -0.83681076807681  0.90437329022902
 1  10.12454932023202 -0.34372417411741 -1.77221794469447
 1  8.87120430803080 -2.80258892169217 -1.07047627312731
 1  10.72034889588959 -2.92332400880088 -1.57746349194920
 1  10.06168461026103 -3.03013489098910  0.11374785328533
 1  11.42453664376438  0.81146877067707  0.44703816641664
 1  11.07039460886089 -0.97256574207421  1.13244376607661
 1  12.67355386338634 -1.77536141514151 -0.47804124692469
 1  12.52253256985698 -0.46827410031003 -1.66641996049605
 1  13.51287232273227  0.90701109690969  0.45137031113111
 1  13.70821565706571 -0.36847980198020  1.18807838403840
 1  14.98704020142014  0.03936713651365 -1.50067671747175
 1  14.74767016201620 -2.28723700750075 -0.95552957345735
 1  16.57619435573557 -1.82650849034903 -0.92688408100810
 1  15.44869758735874 -2.14220383898390  0.72715541684168
 1  15.99718691029103  1.60228331703170  0.46850069366937
 1  16.33187951065107  0.06830063916392  1.36115811261126
 1  18.15870194749475 -0.42860133873387 -0.19602428712871
 1  17.54789751515152  0.88410137323732 -1.23831113571357
 1  18.22012371827183  2.65357408510851  0.47022351735174
 1  18.53610662486249  1.26657549434944  1.55511676727673
 1  20.35300353015302  0.52692342604260  0.06788972607261
 1  19.54460715791579  3.41186331843184 -1.28418339253925
 1  21.15149366656665  2.69528513231323 -1.63315863926393
 1  19.65909414521452  1.85540557715772 -2.21255643684368
 1  21.12188720182018  1.99700925122512  1.99447337513751
 1  22.13112695439544  2.42975109170917  0.36256815661566
 1  20.48863652635264  3.36062573307331  1.24645725012501
 1 -6.97741152365237  1.81346561856186  0.28284154095410
 1 -7.38919028562856 -0.33012788838884 -0.13497681788179

