%nproc=4
%Mem=2GB
# td=(NStates=1) B3LYP/SVP 

TD

0 1
 6 -5.17734058455846 -2.07762756875688  0.58773739883988
 6 -4.61037719591959  2.71645187418742  1.42680935703570
 6 -9.25479472307231  3.37142333863386 -0.35822043824382
 6 -9.86885873697370 -1.34245584018402 -0.90699684508451
 7 -5.22069881788179  0.38050451155116  0.82799025702570
 6 -4.57447554515452 -0.88011699529953  0.80086617221722
 6 -3.14622637633763 -0.73275375887589  1.19095234463446
 6 -3.12432658505851  0.69845496309631  1.88606311171117
 6 -4.40764572267227  1.37997504290429  1.29211112251225
 6 -3.02041853975398  0.75524382538254  3.38978883688369
 6 -2.03811915471547 -0.80443545764576  0.09666627432743
 6 -0.64812320042004 -0.83640249504950  0.62118988408841
 6  0.33164767066707 -1.03205012231223 -0.49164502170217
 8  0.02260199609961 -1.39953964386439 -1.58718117271727
 8  1.63215829102910 -0.71883830233023 -0.17333232523252
 7 -6.99569275027503  2.82903764566457  0.55211580558056
 6 -5.86003018401840  3.40551728422842  1.16111023642364
 6 -6.18372964546455  4.71577966176618  1.13248480018002
 6 -7.37478054255426  4.95235655865587  0.50881611171117
 6 -7.93781923232323  3.68102670157016  0.09133046934693
 6 -5.28970812721272  5.70659444184418  1.73999000290029
 6 -7.99721630983098  6.21890160786079  0.27422247654765
 6 -8.76158368116812  6.62137142774277 -0.76375499179918
 7 -9.14969836913691  0.94246272087209 -0.62366934233423
 6 -9.77352913031303  2.16421972367237 -0.61623043374337
 6 -11.22092833083308  2.01025466496650 -1.04209828112811
 6 -11.41121656215622  0.72202624402440 -1.30788084968497
 6 -10.10510721912191  0.01194414501450 -0.99700318071807
 6 -12.21292548974897  3.11003357245725 -1.07734216331633
 6 -12.45574567196720 -0.05421451985199 -1.86811904690469
 6 -12.30262473207321 -0.38896354275428 -3.35125230963096
 7 -7.41764489018902 -1.30418473297330 -0.27327367246725
 6 -8.62961894739474 -1.98921553575358 -0.59276620502050
 6 -8.17239084628463 -3.48173277477748 -0.67512125062506
 6 -6.90005203340334 -3.49697558185819 -0.26851895719572
 6 -6.52968150775077 -2.15112691179118  0.03084523862386
 6 -9.12186617171717 -4.58748214821482 -1.00493300010001
 6 -5.83560968246825 -4.37964319121912 -0.03167049744974
 8 -5.92369422552255 -5.58368487718772 -0.09623270287029
 6 -4.62683828842884 -3.43623073577358  0.42311756135614
 6 -4.16631904670467 -3.93306700190019  1.73113499879988
 8 -4.22320493219322 -3.36879783568357  2.85685614961496
 8 -3.47112962866287 -5.13562384368437  1.69503524652465
 6 -3.02611614191419 -5.77689859515952  2.89718618891889
 6  2.72149219261926 -0.95569426002600 -1.08266247154715
 6  3.95888999879988 -0.61634625802580 -0.33965057825783
 6  4.99662196239624  0.20086913451345 -0.71769717431743
 6  4.96100661086109  0.98482232393239 -2.02445498449845
 6  6.26437014911491  0.29061168946895  0.08313685058506
 6  7.50960518771877 -0.28398773187319 -0.77999535293529
 6  8.75550902790279 -0.28955416231623  0.10554567466747
 6  10.09471132583258 -0.65017950055006 -0.71092207210721
 6  10.05379917331733 -2.11621678747875 -1.27792190689069
 6  11.29156983158316 -0.40429009960996  0.13306083808381
 6  12.71870045464546 -0.61882036043604 -0.66482435963596
 6  13.89983639083908 -0.02240494359436  0.13811017361736
 6  15.25673749484949 -0.12920595639564 -0.47233106890689
 6  15.68614594219422 -1.65105926782678 -0.28561829732973
 6  16.31521411861186  0.80768167936794  0.13497676207621
 6  17.66477331603160  0.67581331523152 -0.38342285008501
 6  18.56468631963196  1.70582920192019  0.34666335923592
 6  20.11416131203120  1.66674229952995  0.01836459685969
 6  20.40577150665067  2.16918634983498 -1.50809721872187
 6  20.92384284988499  2.63884762086209  0.91700810151015
 1 -3.97861602920292  3.43305969026903  1.84814705300530
 1 -9.81332891789179  4.21808124462446 -0.68442711661166
 1 -10.69845818571857 -2.17619362936294 -1.14283417731773
 1 -2.98840489198920 -1.59531989608961  1.87593938863886
 1 -2.36507707530753  1.24243419451945  1.46211570997100
 1 -2.04976249214922  0.48320574227423  3.70801752705271
 1 -3.26791009130913  1.75891053465347  3.96655575677568
 1 -3.77037761716172  0.06887759005901  3.79687853355336
 1 -2.18646810071007 -1.96993087078708 -0.33790064636464
 1 -2.31382732133213 -0.45862838853885 -0.88144680538054
 1 -0.51705602900290  0.05059918581858  1.23963999449945
 1 -0.43814682758276 -1.55594477447745  1.52158927792779
 1 -4.47626228362836  6.07757589518952  1.13238637663766
 1 -5.64980619941994  6.74202932163216  1.87391298829883
 1 -5.04005578257826  5.47667751715172  2.53031409200920
 1 -7.81482158105811  7.12144917861786  0.96000730703070
 1 -8.96021141394139  5.79273725922592 -1.49342873887389
 1 -9.26882116131613  7.69930521582158 -0.85153485758576
 1 -12.52263681108111  3.42060255875588 -0.07812021062106
 1 -11.81847076937694  4.01381634633463 -1.67224444194419
 1 -13.20650805080508  2.82214783298330 -1.69275232213221
 1 -12.47533235913591 -0.93053317961796 -1.32572714651465
 1 -13.58111885418542  0.27894755615562 -1.55224890219022
 1 -12.22562707770777  0.47039405450545 -3.99313815721572
 1 -11.21316752445245 -0.86766616301630 -3.70334113081308
 1 -13.11807988118812 -1.22448980708071 -3.71671553025302
 1 -10.23305085188519 -4.31929402130213 -0.64983078697870
 1 -9.26785869606961 -4.46978399189919 -2.05792631323132
 1 -8.88264997049705 -5.58125890579058 -0.77980263376338
 1 -3.88037376467647 -3.71491884318432 -0.17603066286629
 1 -2.65787265526553 -6.73140974467447  2.54608031203120
 1 -2.29660623232323 -5.15307504650465  3.38321277157716
 1 -3.95796685208521 -5.82925992599260  3.60561208140814
 1  2.71742353415341 -1.94879162026203 -1.42736987028703
 1  2.50505234813481 -0.38911034903490 -1.99154677397740
 1  4.17026846274628 -1.18925699619962  0.58686773117312
 1  5.51990725522552  1.92597029482948 -1.87138972637264
 1  5.60311727552755  0.39254520972097 -2.74915798289829
 1  4.00386687188719  1.24786759265927 -2.55882123902390
 1  6.55067516461646  1.22121526542654  0.42029682928293
 1  6.22012983878388 -0.21425701100110  0.99920961506151
 1  7.16622727582758 -1.20525457085709 -1.36267111321132
 1  7.51642139323932  0.41062656725673 -1.62781163886389
 1  8.84055849744975  0.80392824432443  0.63506476497650
 1  8.81902463236324 -1.07781486848685  0.98268112101210
 1  10.12116898219822 -0.22291209290929 -1.77589831273127
 1  8.91094828242824 -2.34426308910891 -1.81734095959596
 1  10.79713657465747 -2.33074475087509 -1.97247299289929
 1  10.09090753255326 -2.72783466096610 -0.38915243674367
 1  11.56241043114311  0.74525214901490  0.43389685228523
 1  11.58307587698770 -1.14653313881388  1.11027154885489
 1  12.74771127912791 -1.65963984298430 -1.00149359215922
 1  12.57253757035704 -0.03707097999800 -1.66306962546255
 1  13.59046008150815  1.10190058585859  0.12527770187019
 1  13.90556539203920 -0.39803275727573  1.08813839003900
 1  15.31192268966897  0.31987518731873 -1.51114776457646
 1  15.24221961696170 -2.48408669246925 -1.03228724922492
 1  16.93515025132513 -1.78891473097310 -0.43856524912491
 1  15.41947466506651 -2.03665328392839  0.89350205150515
 1  15.92154934653465  1.82027511621162  0.16514035763576
 1  16.41864818751875  0.44609841894189  1.07684968176818
 1  18.25471154845485 -0.14016249484949 -0.26558124282428
 1  17.39313203860386  0.96659962306231 -1.42538984358436
 1  18.42641434733473  2.75343407110711  0.14797129212921
 1  18.52267528172817  1.51197003380338  1.50218147374737
 1  20.73657188698870  0.58880961466147 -0.20419748264826
 1  20.12972566976698  3.29000113221322 -1.73914888908891
 1  21.51831034823482  2.32268787258726 -1.53839916331633
 1  19.71651988778878  1.90575061166117 -2.47214239543954
 1  20.96815182828283  2.48146769706971  1.98164209200920
 1  21.98425226692669  2.45466358295830  0.85959785958596
 1  20.43469113181318  3.65035470597060  0.62512511691169
 1 -7.00800458295829  1.83160743274327  0.14713797059706
 1 -7.33186455305531 -0.41079595519552  0.22038871867187

