%nproc=4
%Mem=2GB
# td=(NStates=1) B3LYP/SVP 

TD

0 1
 6 -5.13150600110011 -1.97569737573757  0.42401102620262
 6 -4.75525168336834  2.73223345234523  1.36010268636864
 6 -9.29845908950895  3.35516171247125 -0.27399201540154
 6 -9.84570642174217 -1.49697129172917 -0.80842698809881
 7 -5.21674842284228  0.39170563166317  0.89317677567757
 6 -4.44748284588459 -0.77249623322332  0.79541562716272
 6 -3.04068582228223 -0.53470395389539  1.28008125752575
 6 -3.13536768916892  0.81421653925393  1.82714722012201
 6 -4.48734369246925  1.37763480888089  1.30671258265827
 6 -2.94385088298830  0.98619692069207  3.38529838783878
 6 -2.02211755455546 -0.69903491759176  0.12061866956696
 6 -0.53822221032103 -0.78920777557756  0.45198296339634
 6  0.38421292719272 -1.13733065036504 -0.73237909510951
 8  0.15327506340634 -1.56312600250025 -1.76605906050605
 8  1.68997407260726 -0.73995041354135 -0.30667565956596
 7 -7.04383756475648  2.77396213811381  0.58355894989499
 6 -5.95173935493549  3.40660739323932  1.05197932333233
 6 -6.31274254675468  4.84663274707471  1.07426897859786
 6 -7.65013807830783  5.02877420042004  0.46767199729973
 6 -8.04012946334634  3.67966656555656  0.21022235853585
 6 -5.34704386078608  5.87563134553455  1.49450545444544
 6 -8.24296088428843  6.20617033473347  0.29797485178518
 6 -9.09827735053505  6.59257854845485 -0.66212482878288
 7 -9.13414681398140  0.80418889348935 -0.53330030543054
 6 -9.86669844724472  1.99990329202920 -0.59536834753475
 6 -11.25376161416142  1.91822546204620 -0.91377544884488
 6 -11.39875531603160  0.59394343574357 -1.11079114071407
 6 -10.11319802820282 -0.10534758415842 -0.81229470987099
 6 -12.26556075327533  3.02714528362836 -1.12053648274827
 6 -12.64832492989299 -0.11071016941694 -1.45184741974197
 6 -12.65802027162716 -0.48920356675668 -2.93235041944194
 7 -7.57033015871587 -1.29392370687069 -0.28234457955796
 6 -8.65455144064406 -2.12855947014701 -0.59210613901390
 6 -8.12819642684268 -3.47316191769177 -0.60806454495450
 6 -6.76870889908991 -3.42346823112311 -0.29601170647065
 6 -6.42750128972897 -2.05618741784178 -0.00946879277928
 6 -8.98574255935594 -4.56478987898790 -1.03921642844284
 6 -5.64201032253225 -4.28500372727273 -0.07086441684168
 8 -5.53835569166917 -5.49931644034403 -0.17858093769377
 6 -4.53633923852385 -3.26817393009301  0.38444369396940
 6 -3.99882229702970 -3.79950364556456  1.71135302060206
 8 -4.31505411711171 -3.48799975587559  2.79268973297330
 8 -3.12693520922092 -4.78546882818282  1.47159290229023
 6 -2.63684721502150 -5.49255016031603  2.58867533783378
 6  2.74312435583558 -0.97514620522052 -1.27792199749975
 6  4.01839594939494 -0.65215983938394 -0.60454706790679
 6  5.02118441864186  0.15781482908291 -1.14009941454145
 6  4.86116662686269  0.88458229992999 -2.30907344634463
 6  6.21297500960096  0.44869749804981 -0.32262372547255
 6  7.56395062226223 -0.09558889198920 -0.93912126552655
 6  8.73876735373537 -0.14812001890189  0.02374749484948
 6  10.04690654535454 -0.79593407600760 -0.59383036293629
 6  9.98022181558156 -2.26143130893089 -0.92418653335334
 6  11.37328800340034 -0.29116878747875  0.15235276727673
 6  12.67734631923192 -0.53187166556656 -0.35712358955896
 6  13.87136354355435 -0.16355905900590  0.41488785138514
 6  15.24170599169917 -0.21569460526053 -0.37453128892889
 6  15.54157148474848 -1.65525968786879 -0.53619335483548
 6  16.32592518971897  0.46765767696770  0.48612187658766
 6  17.76870370907091  0.53805953985399 -0.19347385518552
 6  18.70033988498850  1.45587420642064  0.61945063796380
 6  20.11952184808481  1.64222984828483  0.07309006940694
 6  20.07309823932393  2.13208263946395 -1.42785919491949
 6  21.05792625822582  2.46216995309531  0.98041444214421
 1 -4.05383355095510  3.45764214851485  1.90736297459746
 1 -9.99912749774978  4.05696513301330 -0.57420609450945
 1 -10.89901824172417 -2.02830884088409 -0.91283117701770
 1 -2.63028908040804 -1.20181054515452  2.13633542824282
 1 -2.29872043964396  1.44528447954795  1.28061756015602
 1 -2.10013752965297  0.44738215991599  3.80151687698770
 1 -2.94615791609161  1.96832147574757  3.43203230443044
 1 -3.90573115251525  0.51905260756076  3.86561540724072
 1 -2.26336579047905 -1.57399127682768 -0.33042989928993
 1 -2.16791272987299  0.10987846214621 -0.69740840154015
 1 -0.16847117051705  0.17719184508451  0.79921595209521
 1 -0.44711772467247 -1.59434861486149  1.28461558055806
 1 -4.36076073347335  5.68376651425142  1.01560469846985
 1 -5.81773299209921  6.91691681038104  1.58363396039604
 1 -5.02060383738374  5.69559940934093  2.69644070467047
 1 -7.82155225412541  7.12465949964996  1.01818312461246
 1 -9.44232962576258  6.00082806830683 -1.62571196719672
 1 -9.63123740294029  7.54408969426943 -0.44101380548055
 1 -12.54632918031803  3.65144564306431 -0.37762016061606
 1 -11.90775969826983  3.66767173187319 -1.99941715921592
 1 -13.11061846184618  2.60573619181918 -1.32579562646265
 1 -12.85569039493949 -1.10165029132913 -0.69888446224622
 1 -13.50036077837784  0.47819748114811 -1.15017869516952
 1 -12.92048656365636  0.52802981808181 -3.53659250265027
 1 -11.62275848354836 -1.02810220662066 -3.16905770247025
 1 -13.32674074727473 -1.12387974607461 -2.98492235093509
 1 -9.89539708650865 -4.64536662856286 -0.39790559445945
 1 -9.32963487368737 -4.83883089658966 -2.19937045764576
 1 -8.26895860136014 -5.35936671657166 -0.98979363286329
 1 -3.73186891419142 -3.41332868416842 -0.20029308910891
 1 -1.85307217521752 -6.31559816351635  2.35393109710971
 1 -2.19466603830383 -4.73135287428743  3.41973642394239
 1 -3.48008906430643 -5.80199719971997  3.14728624882488
 1  2.71870366216622 -1.96114285538554 -1.75241237453745
 1  2.65262710561056 -0.25891732973297 -2.19612723202320
 1  4.12282371827183 -0.98899697019702  0.44674371877188
 1  5.06274153865387  1.96216391419142 -1.98840142754275
 1  5.58290525432543  0.66115207040704 -3.14308737583758
 1  3.86143262846285  0.74276708260826 -2.98113347024702
 1  6.36214631173117  1.59757290119012 -0.19415461586159
 1  6.14694252005201  0.08777319201920  0.62984267836784
 1  7.20525117821782 -1.13032707810781 -1.87357220332033
 1  7.89256900800080  0.73807931253125 -1.72672152985299
 1  8.90236467806781  0.86123397489749  0.42645390389039
 1  8.52324505440544 -0.93964105110511  0.91291414431443
 1  10.28052491779178 -0.36563636533653 -1.44293501640164
 1  8.96868405600560 -2.26947561036104 -1.43429265476548
 1  10.87980484148415 -2.58447012341234 -1.68121386698670
 1  9.93377181898190 -2.98207008450845 -0.17245076657666
 1  11.18183237333733  0.67394501830183  0.43237670027003
 1  11.38375594499450 -0.70763924942494  1.18866938863886
 1  12.68089459745975 -1.72843672267227 -0.66738018081808
 1  12.56792710931093 -0.12040931383138 -1.43718703720372
 1  13.75384642014201  0.97562795859586  0.89030420452045
 1  14.00793562906291 -0.75038799279928  1.44362393859386
 1  15.24710620802080  0.16309950975097 -1.43281993179318
 1  14.85024041904190 -2.09951823562356 -1.18046206670667
 1  16.49720645694570 -1.93616945644564 -0.85521691429143
 1  15.62933565116512 -2.31699131773177  0.43255595689569
 1  16.05984317591759  1.60258334703470  0.69538338193819
 1  16.29102542524253  0.11306511561156  1.53575557235724
 1  18.25964204150415 -0.32395087368737 -0.32933761846185
 1  17.51726445184519  1.01857482058206 -1.08969627422742
 1  17.80768247414742  2.28333706140614  0.58915541054105
 1  18.61522453665367  1.13490232703270  1.74683593919392
 1  20.68430666046605  0.64246498019802  0.00223316041604
 1  19.77184988218822  3.03819595169517 -1.65915088928893
 1  21.17982649984998  1.97884348814881 -1.74208953235324
 1  19.62736097189719  1.46172620922092 -2.23506868806881
 1  20.80129514261426  2.26538608890889  2.10103403120312
 1  22.11874571627163  2.29464758135814  0.78220011981198
 1  20.66729439213922  3.53782345284528  0.82853545794580
 1 -7.07896167866787  1.82386665866587  0.44592784958496
 1 -7.85698706530653 -0.23921879747975 -0.18003132333233

