%nproc=4
%Mem=2GB
# td=(NStates=1) B3LYP/SVP 

TD

0 1
 6 -5.11341419191919 -1.98731853785379  0.39986861196120
 6 -4.60597675587559  2.72803303230323  1.40461713781378
 6 -9.23863310691069  3.35316151245125 -0.20770538673867
 6 -9.84247609870987 -1.41810340494049 -0.90635678107811
 7 -5.11859860786079  0.45635209630963  0.77238469646965
 6 -4.49419751735174 -0.83332231583158  0.79888597419742
 6 -3.04465621932193 -0.64208469196920  1.23446669606961
 6 -2.94080823322332  0.81713683128313  1.65654015941594
 6 -4.27296225432543  1.34746179157916  1.21659357075708
 6 -2.64867136503650  1.12528082908291  3.18709856785679
 6 -2.03527887068707 -0.99288430253025  0.16325293299330
 6 -0.55867425552555 -0.82628148294830  0.64120188528853
 6  0.44672917881788 -1.06636355365537 -0.62851870907091
 8  0.00124986088609 -1.55662535243524 -1.65158761336134
 8  1.58031310651065 -0.87226364486449 -0.26538153015302
 7 -6.94374755575558  2.70795553745375  0.60587118111811
 6 -5.80301448244825  3.41712844534453  0.99106323172317
 6 -6.12466373887389  4.75382346614661  0.94665621732173
 6 -7.43510657515752  4.91002232523252  0.48691392149215
 6 -8.04704015441544  3.62838143704370  0.30120145644564
 6 -5.17834699109911  5.84692847524753  1.42089809370937
 6 -8.04903149134913  6.33571328902890  0.39493454775478
 6 -8.98300582338234  6.74580387098710 -0.42159077537754
 7 -9.16064946424643  0.88269674427443 -0.48734570997100
 6 -9.78892066946695  2.13026632833283 -0.54657346804680
 6 -11.20005624362436  1.95516915641564 -0.80182425372537
 6 -11.43665910641064  0.57523156455646 -1.04305436703670
 6 -10.07971467986799 -0.05935298469847 -0.91297477787779
 6 -12.18412260946095  2.98360092919292 -1.17203163226323
 6 -12.74186428382838 -0.06548564696470 -1.61728396339634
 6 -12.71254572417242 -0.37806245264526 -3.07858504290429
 7 -7.42273539923992 -1.18529284378438 -0.36743308840884
 6 -8.60022600810081 -2.03911052525253 -0.67130405880588
 6 -8.19942354955496 -3.48152275377538 -0.62493623212321
 6 -6.87005903410341 -3.37122300660066 -0.25766787208721
 6 -6.42087062666267 -2.04801660076008 -0.05838368426843
 6 -9.06490047514751 -4.57256065606561 -0.97904041084108
 6 -5.78613473497350 -4.31768699559956  0.02713538313831
 8 -5.88961081718172 -5.56863337203720  0.00643756415642
 6 -4.57575317991799 -3.32800991369137  0.50861611121112
 6 -4.01709412421242 -3.83552724792479  1.70644252955296
 8 -4.20534314601460 -3.32017297319732  2.79606007000700
 8 -3.24212672837284 -5.00113039433943  1.54945068806881
 6 -2.66851038133813 -5.43904480978098  2.67163363366337
 6  2.64197424082408 -1.05181387198720 -1.21821602690269
 6  4.00175428522852 -0.74245886928693 -0.54753136633663
 6  4.98571087128713 -0.03564451685169 -1.08554395899590
 6  4.76132664286429  0.73464730643064 -2.40774331333133
 6  6.26986069816982  0.22230485878588 -0.31747321042104
 6  7.46959118631863 -0.44622395549555 -1.03272062546255
 6  8.74635811281128 -0.28779398629863 -0.10399527942794
 6  10.02789464416442 -0.84252873547355 -0.82748372827283
 6  10.05609940334034 -2.29322448824883 -1.08865297999800
 6  11.33494416901690 -0.44466413701370  0.06010354235424
 6  12.69037762236224 -0.52269074747475 -0.63352122932293
 6  13.79966637383738 -0.14636733983398  0.27541390399040
 6  15.25590741184118 -0.16036907270727 -0.38796263206321
 6  15.65943327092709 -1.62454661656166 -0.67926766226623
 6  16.20939353655366  0.56291720292029  0.59537280168017
 6  17.58979581828183  0.81346708060806 -0.08730323812381
 6  18.51322117311731  1.82750136913691  0.59986867976798
 6  19.94096399229923  1.73627925322532  0.14298705910591
 6  20.08813974347435  2.49339877107711 -1.20971738073807
 6  20.76643710931093  2.49467320342034  1.32854925562556
 1 -3.78970713831383  3.41379776407641  1.72743498179818
 1 -9.96029361436144  4.08125756225623  0.01482280838084
 1 -10.58291663156316 -2.26161217121712 -1.13976387028703
 1 -2.92740879237924 -1.34281464556456  2.17568936363636
 1 -2.19545011261126  1.56022597369737  1.29640913931393
 1 -1.79823733963396  0.67564498619862  3.63515024032403
 1 -2.69436273657366  2.37072171577158  3.31793089428943
 1 -3.56816739613961  0.66808751105111  3.80891973767377
 1 -2.10622007590759 -2.08997287498750 -0.22154901120112
 1 -2.14792073067307 -0.29003152885289 -0.86466512721272
 1 -0.41442576597660  0.22563668956896  1.06888291879188
 1 -0.16413942684268 -1.50295947594759  1.56131325032503
 1 -4.24701935933593  5.87048518611861  0.47698083608361
 1 -5.42708392719272  7.02240735943594  1.23819941694169
 1 -4.49577135413541  5.81406125552555  2.37511857245725
 1 -7.85806590549055  7.03626065976598  1.17061836813681
 1 -9.24637002980298  6.07419540504050 -1.21200059605961
 1 -9.31017529672967  7.76010129542954 -0.62563226732673
 1 -12.66269081648165  3.38368886738674 -0.19890228882888
 1 -11.69096801910191  3.91707667236724 -1.69559677717772
 1 -13.08111551155116  2.69319493769377 -1.68917196409641
 1 -12.94508933483348 -1.10480060636064 -1.07559213301330
 1 -13.60246098839884  0.63300296169617 -1.39704338163816
 1 -12.60054456945694  0.50449746484648 -3.71622046544654
 1 -12.01877808550855 -1.11414081048105 -3.42784358105811
 1 -13.65257333053305 -0.84882224032403 -3.23593745244525
 1 -9.71390893769377 -4.76096818871887 -0.16279208310831
 1 -9.62942485268527 -4.57325433893389 -2.02538305890589
 1 -8.63063476897690 -5.65647642754275 -0.95732038553855
 1 -3.77860358765877 -3.40652800410041 -0.30667372717272
 1 -1.96098296629663 -6.25846244994499  2.38514421842184
 1 -1.96543311501150 -4.82109184818482  3.20921537183718
 1 -3.47006806220622 -5.76039303930393  3.33987550775078
 1  2.55953774557456 -1.93007974907491 -1.65874300760076
 1  2.45089693259326 -0.28373981198120 -2.20917853715371
 1  3.94323575947595 -1.08900697119712  0.53240228462846
 1  4.99701496599660  1.94175187298730 -2.26881946934693
 1  5.73817078087809  0.61200715591559 -3.09316238333833
 1  3.74788127332733  0.39201200710071 -2.75344070097010
 1  6.38048814591459  1.35331847574757 -0.37307250765077
 1  6.38300612641264 -0.35775136043604  0.77167686178618
 1  7.13664431753175 -1.53452749814982 -1.21229607570757
 1  7.63972372347235 -0.12862735813581 -2.13667252495250
 1  8.87953239483948  0.78462631413141  0.13361461996200
 1  8.65155788568857 -0.84462154915492  0.71842469536954
 1  10.05170203550355 -0.16723652535254 -1.84552527542754
 1  9.22308949654966 -2.45495415821582 -1.99537876337634
 1  11.14696155715572 -2.86704838123812 -1.09904565016502
 1  9.50347878967897 -3.03971584908491 -0.19114263576358
 1  11.17672186228623  0.48646627042704  0.26290975357536
 1  11.38222579197920 -1.20859934543454  0.89772029372937
 1  12.74882139013901 -1.50862474147415 -1.14434787758776
 1  12.66930724732473  0.20294302140214 -1.60152347084708
 1  13.50122115761576  1.02358275407541  0.60269544364436
 1  13.87756259175918 -0.73424637863786  1.24670424662466
 1  15.28837033443344  0.24688788858886 -1.45214186398640
 1  14.99157455245525 -2.12933121692169 -1.21212523302330
 1  16.67620435673567 -1.68172401190119 -1.15556694929493
 1  15.56071878947895 -2.19314893349335  0.30573327462746
 1  15.83154034563456  1.38051113981398  0.83932777637764
 1  16.30784710741074  0.24057786688669  1.58601059785979
 1  18.20192626992699 -0.16561504010401 -0.06957164186419
 1  17.64104683008301  0.97896085918592 -1.36404370897090
 1  18.06134784068407  2.79686841454145  0.23093958895890
 1  18.38943195739574  1.66540537733773  1.72509376497650
 1  20.30775900570057  0.76296703040304 -0.05271233413341
 1  19.69298199539954  3.61077320942094 -0.97280225442544
 1  21.34303282048205  2.64015961976198 -1.52310763416342
 1  19.63055129092909  1.92593262986299 -1.96777195839584
 1  20.83118813191319  1.62928247854785  2.17979190699070
 1  21.83997783948395  2.69438755535554  0.73078497829783
 1  20.05689335203520  3.33793346384638  1.85106771117112
 1 -7.03828761126113  1.74131840384038  0.51466472327233
 1 -7.57255862246225 -0.15850072567257 -0.33973729392939

