%nproc=4
%Mem=2GB
# td=(NStates=1) B3LYP/SVP 

TD

0 1
 6 -5.07977082758276 -1.89089889588959  0.39837846294629
 6 -4.70031618981898  2.86701693069307  1.36711338743874
 6 -9.41063030663066  3.29287548384838 -0.22970758695870
 6 -9.95994784588459 -1.56072766736674 -0.78202434783478
 7 -5.19493624162416  0.54586104720472  0.78671612961296
 6 -4.47762586018602 -0.67391637523752  0.75479156475648
 6 -2.95679743344334 -0.48918940244024  1.11724497389739
 6 -3.00289444184418  0.82940805840584  1.88156266166617
 6 -4.35790074817482  1.50335738113811  1.31500341174117
 6 -2.85664216211621  0.82082038303830  3.30122998099810
 6 -2.06099144194419 -0.63774878897890  0.00520712841284
 6 -0.60212860096010 -0.60736959175918  0.40918868396840
 6  0.41706621252125 -0.91605852315232 -0.76398225542554
 8  0.07650738663866 -1.37023671357136 -1.83914636923692
 8  1.62818789398940 -0.62748916741674 -0.36437142914291
 7 -7.01923510451045  2.76013075497550  0.50982157615762
 6 -5.98089227022702  3.39400613311331  1.04059818521852
 6 -6.32059333183318  4.77852593639364  1.00929248094809
 6 -7.53675674017402  5.05978730173017  0.44257948804880
 6 -8.11343679407941  3.65662426132613  0.29950128642864
 6 -5.33177233363336  5.79476325872587  1.48954495839584
 6 -8.19270585878588  6.24726444414441  0.21392644694469
 6 -9.19772729552955  6.59612890349035 -0.61302991929193
 7 -9.27659105840584  0.77461593619362 -0.44047102250225
 6 -9.86671844924492  1.99368266996700 -0.49897870857086
 6 -11.37569380738074  1.76868050755076 -0.82650672197220
 6 -11.53258869936994  0.44326836823682 -1.04861492309231
 6 -10.16493320172017 -0.15117216661666 -0.83379686008601
 6 -12.38882307950795  2.89725229432943 -1.01986641574157
 6 -12.75386548394840 -0.31156025442544 -1.59096133113311
 6 -12.68495296489649 -0.71316596299630 -3.03824100850085
 7 -7.57917104280428 -1.25051936643664 -0.14928127322732
 6 -8.72007799329933 -2.03668028222822 -0.48132506090609
 6 -8.24811841904190 -3.40246484798480 -0.49138287678768
 6 -6.88667069526953 -3.38140402470247 -0.10950305560556
 6 -6.45363390299030 -2.05133693279328  0.00038219231923
 6 -9.02870685578558 -4.61815521552155 -0.73634614141414
 6 -5.70769689118912 -4.34361958885889  0.04922759235924
 8 -5.53763561966197 -5.54705121382138 -0.02958603820382
 6 -4.53582918751875 -3.27290440314031  0.47549279887989
 6 -3.81069348414841 -3.74706840204020  1.79547143244324
 8 -4.15234784648465 -3.31593254915492  2.89059952395240
 8 -2.95242775847585 -4.72457273857386  1.49785552855285
 6 -2.11700523082308 -5.31144204950495  2.60340681098110
 6  2.55007505090509 -0.93868255885589 -1.36290049534953
 6  3.96393050285029 -0.68190281368137 -0.80993760696070
 6  4.99831213141314  0.10177922552255 -1.13971937653765
 6  5.06703721392139  1.03104694639464 -2.34850738973897
 6  6.31279499159916  0.12987561586159 -0.35525698879888
 6  7.52479670687069 -0.36876620972097 -1.03181053445345
 6  8.84063754075408 -0.32534774167417 -0.26574145404540
 6  10.14314616931693 -0.71131561416142 -0.96260724062406
 6  10.12054584798480 -2.20319548534854 -1.43340745544554
 6  11.34414508910891 -0.23926359695970 -0.04489695769577
 6  12.63362194679468 -0.52379085748575 -0.75402327952795
 6  13.72868927612761  0.06572386928693  0.11203756635664
 6  15.21751357245724 -0.23090612641264 -0.38375221102110
 6  15.48003533113311 -1.68227238913891 -0.69870960646065
 6  16.34105670287029  0.45611652285229  0.51340460486049
 6  17.69947678637864  0.53425915981598 -0.03339784758476
 6  18.58126797779778  1.37413603260326  0.85731442434243
 6  20.11328122402240  1.52970859615962  0.50443320372037
 6  20.32307323682369  2.03332276347635 -0.93780018901890
 6  20.90837130273027  2.20140387648765  1.61186758745875
 1 -3.95925409300930  3.66249263356336  1.57421966026603
 1 -9.95247283228323  4.17888732523252 -0.39121779567957
 1 -10.78961730163016 -2.27157316731673 -1.15084497839784
 1 -2.72525857735774 -1.15423578767877  1.77509930463046
 1 -2.18929949754975  1.42787273837384  1.44275377377738
 1 -2.11095861176118  0.14723214491449  3.70306703200320
 1 -2.75523882418242  1.92074671827183  3.75802490369037
 1 -3.78893947334733  0.33498420072007  3.82285113081308
 1 -2.18074752865287 -1.56682055975598 -0.57143399969997
 1 -2.29464540314031  0.14452192649265 -0.82183084378438
 1 -0.39706402980298  0.08015214111411  1.27685371587159
 1 -0.25113812671267 -1.49922910291029  1.04922204120412
 1 -4.60645530293029  6.05979411701170  0.62812595059506
 1 -5.72319353815382  6.83740885958596  1.63507910491049
 1 -4.64205598259826  5.48406825622562  2.33120418101810
 1 -7.65099519841984  7.18103513721372  0.62711401770177
 1 -9.73283867666767  6.08481646714671 -1.36933632963296
 1 -9.34420870007001  7.68877416271627 -0.77679738383838
 1 -12.33809835723572  3.57690818931893 -0.12306470507051
 1 -12.21632055435544  3.52377734243424 -1.82278949644965
 1 -13.38307570757076  2.49583520172017 -1.20392343924392
 1 -12.99129395529553 -1.21769189548955 -0.97436201000100
 1 -13.57385812811281  0.22024168556856 -1.40759443674367
 1 -12.50552506750675  0.12893990909091 -3.64621346474647
 1 -11.68084429212921 -1.27503690009001 -3.33985478217822
 1 -13.56663473667367 -1.14697205530553 -3.51604546324632
 1 -9.73594114091409 -4.81386347824782  0.16673086918692
 1 -9.64857676787679 -4.56543355685569 -1.70524104470447
 1 -8.34634634013401 -5.46134691459146 -0.93407806130613
 1 -3.83323905120512 -3.65417276857686 -0.33459651945195
 1 -1.63043991199120 -6.10749735343534  2.16733243724372
 1 -1.33785035673567 -4.40733047204720  2.94609906020602
 1 -2.71272232763276 -5.54649164916492  3.51606312651265
 1  2.50212200400040 -2.01238797989799 -1.67157429072907
 1  2.40002184508451 -0.14474591259126 -2.28199581888189
 1  4.13188462436244 -1.18332640314031  0.19043808820882
 1  4.90811607610761  2.17287498529853 -2.12751533893389
 1  5.96841380518052  1.05929188438844 -2.96528959605961
 1  4.04163064826483  0.96012881878188 -2.72658801570157
 1  6.52202229932993  1.02248539243924  0.04413921352135
 1  6.04795262106211 -0.48286387168717  0.59173886798680
 1  7.47567822092209 -1.52018606400640 -1.43136798289829
 1  7.64684443554355  0.21473697829783 -2.01593045074507
 1  9.06273071467147  0.85768361986199  0.14522578107811
 1  8.56509923982398 -1.02032911991199  0.58357121002100
 1  10.29914677997800 -0.10716051775177 -1.88033875677568
 1  9.09932712031203 -2.37944660746075 -1.84268349384938
 1  10.96247310831083 -2.32236391279128 -2.11649739533953
 1  10.18963740554056 -2.80323220072007 -0.49979350085008
 1  11.06776096619662  0.85850347414741  0.17219068166817
 1  11.23523109250925 -0.62010049554955  0.89523004470447
 1  12.72713922192219 -1.48932281128113 -1.09037248004800
 1  12.49336965356536 -0.01810908380838 -1.80836415491549
 1  13.52221325682568  1.27880827662766  0.15047022112211
 1  13.61519635513551 -0.15418837283728  1.07285686188619
 1  15.25334683208321  0.47089028882888 -1.32403905370537
 1  14.78894428942894 -2.05779406320632 -1.58499251975198
 1  16.38151488778878 -1.96690252975298 -1.13334472707271
 1  15.69849256685669 -2.37928754735474  0.19624232553255
 1  15.90681787338734  1.54371746044604  0.55829967356736
 1  16.52429875257526 -0.23765995689569  1.37028902570257
 1  18.11165724302430 -0.56499497809781 -0.13451813651365
 1  17.57974069946995  1.06998996209621 -1.07291459605961
 1  18.18767047294730  2.40573930163016  1.17123361836184
 1  18.53207622182218  0.94139297609761  1.88521977757776
 1  20.54624285408541  0.37726846054605  0.64855779287929
 1  19.78517121432143  3.02186431853185 -0.97146212041204
 1  21.45721423862386  2.12812841664166 -1.30536585998600
 1  19.82528076387639  1.52440247684768 -1.75318049924993
 1  20.63798881198120  1.68791834213421  2.59620354815482
 1  22.09604344604460  2.28721683828383  1.21429332913291
 1  20.41097876057606  3.22456212671267  1.56825943034303
 1 -7.17081086358636  1.84402867486749  0.51499475627563
 1 -8.00342170877088 -0.20130500610061 -0.09263258345835

