%nproc=4
%Mem=2GB
# td=(NStates=1) B3LYP/SVP 

TD

0 1
 6 -5.05795864636464 -1.90096990299030  0.47644626972697
 6 -4.62891905010501  2.83591382038204  1.36690336643664
 6 -9.31798104170417  3.29790598689869 -0.22375699189919
 6 -9.74353620472047 -1.48744033863386 -0.83212935833583
 7 -5.18445519351935  0.43257971907191  0.78077553555356
 6 -4.46265436303630 -0.73554253785379  0.85914199979998
 6 -3.00705245894589 -0.53703418691869  1.20478372777278
 6 -2.97494164656466  1.00213533113311  1.70114461986199
 6 -4.38303326142614  1.45479252465247  1.23528543994399
 6 -2.77707420532053  1.07020532153215  3.30908076607661
 6 -2.03627897069707 -0.77809282338234  0.00032664036404
 6 -0.57840622872287 -0.85172402720272  0.41865963106311
 6  0.37635214111411 -1.10229714701470 -0.63497935513551
 8  0.09625936183618 -1.66798648854885 -1.67104955955596
 8  1.58819389458946 -0.82804922342234 -0.29031402340234
 7 -6.90619380038004  2.78985372727273  0.39096969096910
 6 -5.88515269626963  3.42238897139714  0.89620374577458
 6 -6.26816808930893  4.83748183198320  1.06830838253825
 6 -7.51948501300130  5.04379570257026  0.49778500860086
 6 -7.97711316171617  3.60468906780678  0.17712904920492
 6 -5.27322647904790  5.83803758615862  1.62748875277528
 6 -8.22389897809781  6.28167788548855  0.43627868216822
 6 -9.20466798959896  6.64803409400940 -0.43652226852685
 7 -9.11382478177818  0.85004347894789 -0.38443541894189
 6 -9.71389316671667  2.00174347604760 -0.52998180888089
 6 -11.11911814981498  1.85750939043904 -0.91047511881188
 6 -11.37764320482048  0.52624666606661 -1.06216627822782
 6 -9.98004471287129 -0.10553760316032 -0.79151263166317
 6 -12.27624182138214  2.78187075617562 -1.27793222232223
 6 -12.60889098649865 -0.18750784918492 -1.42104433943394
 6 -12.64267873747375 -0.43216786318632 -3.05648283268327
 7 -7.40089321502150 -1.25777009150915 -0.21630797589759
 6 -8.51871785728573 -2.03522013621362 -0.53243017141714
 6 -8.06167977517752 -3.38728332983298 -0.65532927142714
 6 -6.76455848404840 -3.49062494679468 -0.20236234153415
 6 -6.36518505810581 -2.05565736483648 -0.07018486438644
 6 -8.94797878297830 -4.53045644564456 -0.87753025982598
 6 -5.62621874337434 -4.29051427832783 -0.07615494589459
 8 -5.45799765586559 -5.45760226892689 -0.34347742734273
 6 -4.45053065766577 -3.28041515421542  0.44508975857586
 6 -3.91861427622762 -3.85455915111511  1.77536942224222
 8 -4.20765337703770 -3.38746970287029  2.76989745374537
 8 -3.09349186488649 -4.84361464276428  1.56264200720072
 6 -2.64290782108211 -5.54854575987599  2.74573104340434
 6  2.62500254365437 -1.05112380298030 -1.23841804710471
 6  3.89146325612561 -0.68484310771077 -0.66942355555556
 6  4.92009430963096  0.14077312491249 -1.15203060766077
 6  4.75977648784878  0.90422426412641 -2.39118165716572
 6  6.18283199529953  0.45241787008701 -0.32336379947995
 6  7.47729195639564 -0.27872720582058 -0.89902725612561
 6  8.67278075507551 -0.16560176707671  0.02329744984498
 6  9.93060491519152 -0.58586306890689 -0.78523950385039
 6  9.74537833123312 -2.19660482628263 -1.24024813951395
 6  11.16944761936194 -0.32329199979998  0.01789932193219
 6  12.55390397499750 -0.52753123152315 -0.72845072227223
 6  13.72839924712471 -0.03792649574958  0.23297966056606
 6  15.11283310441044 -0.28390142594259 -0.31606544234423
 6  15.52755008260826 -1.69329349124912 -0.31738147364736
 6  16.17426002320232  0.60765167636764  0.46729999439944
 6  17.50090692939294  0.64620035393539 -0.06788129592959
 6  18.55334518551855  1.71529014801480  0.54163285618562
 6  19.96436633253325  1.58696432173217  0.26577933833383
 6  20.25908683818382  1.91626105730573 -1.17478388738874
 6  20.92803326892689  2.28923265936594  1.21019742044204
 1 -3.89666783438344  3.53861024532453  1.75710794909491
 1 -10.14390197519752  3.85304474097410 -0.19514818871887
 1 -10.34172251215122 -2.32208821882188 -1.08954884878488
 1 -2.67427347884788 -1.32900326442644  2.02995479017902
 1 -2.06922749034904  1.55898584968497  1.29498899729973
 1 -1.80770828672867  0.65798322002200  3.69300602590259
 1 -2.74547784808481  2.18360300390039  3.73233233443344
 1 -3.49348992839284  0.55530623292329  3.65693453915392
 1 -2.25333478737874 -1.72324620232023 -0.46684354065407
 1 -2.48558449704970 -0.12861538723872 -0.80223888458846
 1 -0.41652597599760  0.25460958685869  0.74431046154616
 1 -0.57159017191719 -1.56805598559856  1.37599471847185
 1 -4.47261191859186  5.90551868946895  1.09820295829583
 1 -5.70372159095910  6.88772389108911  1.35619121612161
 1 -4.91949372637264  5.75060490989099  2.57529859045905
 1 -7.97562766166617  7.09614664836484  1.26679798609861
 1 -9.40998639143914  5.90786877237724 -1.08904830083008
 1 -9.51451573077308  7.69640492579258 -0.31993169726973
 1 -12.35599014641464  3.50734123262326 -0.37158955755576
 1 -11.91377029932993  3.52367733243324 -2.06855407290729
 1 -13.35323272327233  2.29573519171917 -1.19976302320232
 1 -12.57163198909891 -1.31035116141614 -0.92418699249925
 1 -13.39315005730573  0.31337099849985 -1.37091076837684
 1 -12.90075459045905  0.65321233633363 -3.45243408680868
 1 -11.80094630233023 -0.78434783118312 -3.44821561826183
 1 -13.40638871207121 -1.25708306640664 -3.28136199489949
 1 -9.69169671647165 -4.64614670657066 -0.11128693259326
 1 -9.51679358955896 -4.45165217871787 -1.73321384198420
 1 -8.20944264976498 -5.37060784068407 -1.01777643114311
 1 -3.70404613191319 -3.53930128142814 -0.33034609440944
 1 -2.32600946894690 -6.59962656635664  2.49485518951895
 1 -1.82287885958596 -4.91159089808981  3.25047949824983
 1 -3.50580163556356 -5.32240924092409  3.62087360756076
 1  2.52312410421042 -2.10530727182718 -1.68047518081808
 1  2.44032587548755 -0.35534697269727 -2.09600722002200
 1  3.98914034993499 -1.27970604110411  0.44604364876488
 1  5.03487875237524  1.87167486528653 -2.07726031343134
 1  5.53311027482748  0.68769472467247 -3.18207127422742
 1  3.77326381158116  0.91492429832983 -2.75065042194219
 1  6.48882897999800  1.51316446034603 -0.60359555995600
 1  5.94141196699670  0.29553396809681  0.67762745684568
 1  7.21706235933593 -1.35369941534153 -1.03192803890389
 1  7.74634438553855 -0.06470096549655 -2.00111896959696
 1  8.86600104170417  1.04600245174517  0.29714097259726
 1  8.56527925782578 -0.70580766776678  0.81038389128913
 1  10.14377124242424 -0.19036883858386 -1.80171089398940
 1  8.63913110071007 -2.30980964376438 -1.68699792529253
 1  10.55820268126813 -2.42228390479048 -2.07866361196120
 1  9.78226666846685 -2.66763864136414 -0.21656517801780
 1  11.21697588768877  0.85386301010101  0.55238870147015
 1  11.21582915231523 -1.02138062356236  0.74672519421942
 1  12.64116062406241 -1.49552343134313 -0.88375181798180
 1  12.49858017461746  0.29297202430243 -1.59948326682668
 1  13.55231626712671  1.08638903470347  0.58956413051305
 1  13.49067390289029 -0.50698365236524  1.23723329952995
 1  15.24601609900990  0.11099429922992 -1.41229787958796
 1  14.77850324532453 -2.29676796059606 -0.94326834733473
 1  16.53784052035204 -1.77717355685569 -0.84276566916692
 1  15.58812152975297 -2.28774839343934  0.42848554985499
 1  15.69642683428343  1.67870095879588  0.32247609120912
 1  15.95843216591659  0.57258106720672  1.57290928772877
 1  18.04864094139414 -0.34808328692869 -0.06196088078808
 1  17.50184290969097  0.65046800990099 -1.20668797339734
 1  18.13416512241224  2.59705843354335  0.36606310131013
 1  18.32295530973098  1.72132096889689  1.66608786438644
 1  20.29560779057906  0.40830156385639  0.46111904900490
 1  19.90628332553256  2.96740887298730 -1.77801277547755
 1  21.32298081528153  1.62509811361136 -1.37772309570957
 1  19.73415165096510  1.17429746634663 -1.63710889208921
 1  20.66708172127213  1.81739128942894  2.24108803660366
 1  21.95298914061406  1.99442755935594  0.82125402520252
 1  20.67109477217722  3.47230690119012  1.13590619501950
 1 -6.93754753725372  1.71476574857486  0.41357461426143
 1 -7.54098546514651 -0.24863973957396 -0.01082440264026

