%nproc=4
%Mem=2GB
# td(NStates=1) CAM-B3LYP/6-31G(d,p) nosymm

lutein-abs Single Point

0 1
O -14.02325106  -1.96379461   0.98842221
O  14.64184017   1.03448569   0.95009159
C -11.75127428   0.24432083   1.12655088
C -10.83405137  -0.00915160  -0.14527108
C -12.00635045  -1.10828923   1.88032513
C -12.64762633  -2.26394875   1.02048111
C -11.37700973  -1.11656669  -0.92931032
C  10.99344997  -0.05583128   1.68226313
C -11.18534593   1.18787783   2.15653919
C -13.09430709   0.88767151   0.75796570
C  12.36865707   0.66801312   1.81031088
C -12.19854200  -2.10140921  -0.45295493
C  13.29465400   0.36187481   0.76169429
C  10.52791780  -0.05555219   0.24833326
C  -9.37695219  -0.10518185   0.12508277
C  12.87053112   0.80624662  -0.52606960
C  11.38338383   0.38402411  -0.83007392
C  10.11770466   0.58144518   2.65367149
C  11.30587143  -1.48486437   2.22983447
C -10.98552200  -1.22291499  -2.43933752
C  -8.56285380   0.86576877  -0.28524366
C   9.20992730  -0.50485056   0.03689232
C  11.01058462   0.45969662  -2.29305905
C  -7.02681826   0.63819034   0.08873627
C   8.83637195  -1.51847037  -0.76610224
C  -6.58978880  -0.56062826   0.92950009
C   7.42678325  -1.93908850  -0.94507798
C  -6.27229284   1.62693004  -0.37414689
C   7.29213406  -3.31345441  -1.31888707
C   6.40458577  -1.13469998  -0.62823781
C  -4.81559723   1.68547282  -0.21503241
C   4.94202615  -1.32149290  -0.86113654
C  -4.00544054   2.57236528  -0.87491264
C  -2.62963388   2.79594607  -0.83429401
C   4.00910544  -0.40397479  -0.70744210
C   2.67677135  -0.57082907  -0.86331930
C  -2.16420320   4.15377845  -0.74514931
C  -1.78257340   1.74657439  -0.84705100
C   1.92078576   0.57060078  -0.65762120
C   2.04427049  -1.98413442  -0.99264770
C  -0.38020655   1.74524280  -0.75532958
C   0.45811620   0.60775889  -0.80454666
H -10.97089379   1.00862778  -0.82732073
H -12.61284367  -0.86694532   2.93674670
H -11.03516120  -1.46564848   2.25856539
H -12.37324631  -3.31453296   1.52208908
H -10.40629097   0.79184073   2.87104861
H -10.88054620   2.08159910   1.77197962
H -12.06039616   1.63409114   2.84319755
H -13.67242298   0.55570351  -0.15270906
H -13.97332510   0.75363450   1.45931818
H -12.82252295   1.85601056   0.19859856
H  12.23176988   1.72895582   1.75674837
H  12.82344181   0.47683271   2.91711587
H -12.43588941  -2.75360502  -1.14626336
H  13.74844002  -0.69004243   0.77218056
H  -8.81355897  -0.89136974   0.96823431
H  13.54722605   0.25424905  -1.30219858
H  12.91534629   1.82836160  -0.59028617
H   9.13145466  -0.08893414   2.81253823
H   9.57596701   1.65652349   2.43630700
H  10.55220778   0.66529721   3.73147038
H  11.98802451  -2.03275310   1.50539232
H  10.55403439  -2.27127273   2.35932100
H  11.67696912  -1.45729685   3.21753841
H  -9.94991564  -1.28507628  -2.54699297
H -11.30629340  -0.35638374  -2.82030358
H -11.69496014  -2.06066504  -2.88116430
H -14.38015405  -2.57140372   0.26085106
H   8.36582223  -0.12855206   0.54288163
H  -8.70330627   1.67301646  -0.83066587
H  11.56548604  -0.38525370  -2.74709775
H   9.96262182   0.22121526  -2.44146391
H  11.40995953   1.26762925  -2.97533142
H  14.90785125   0.80915370   2.00490448
H   9.48860504  -1.98854716  -1.30842795
H  -5.41509149  -0.61502274   1.17687936
H  -7.21134542  -0.60871192   1.85212299
H  -6.96060555  -1.50741163   0.39715894
H  -6.65923473   2.32393482  -1.10817219
H   7.52640235  -4.09094565  -0.39500817
H   6.13832327  -3.71022268  -1.42079726
H   7.85817222  -3.60871167  -2.25615014
H   6.52074779  -0.27439667  -0.24872089
H  -4.39649717   0.98253421   0.34455004
H   4.63431881  -2.46854686  -1.09119704
H  -4.54414179   3.37110155  -1.37907552
H   4.38882605   0.52936933  -0.43425594
H  -1.06214072   4.27901664  -0.47352523
H  -2.97296726   4.58569078   0.18633656
H  -2.68962307   4.70833692  -1.42343420
H  -2.18783129   0.53273126  -0.61059537
H   2.59470910   1.40691102  -0.50624558
H   2.46103298  -2.72911578  -0.23241458
H   1.04060234  -2.16120811  -1.12670991
H   2.50645101  -2.30790569  -1.83651179
H   0.01968861   2.64606389  -0.55368379
H   0.06166011  -0.43395656  -0.93053553




