%nproc=4
%Mem=2GB
# td(NStates=1) CAM-B3LYP/6-31G(d,p) nosymm

lutein-abs Single Point

0 1
O -13.97753687  -2.12005788   1.23820012
O  14.54336214   1.12829790   0.91263993
C -11.83878384   0.19113075   1.21493991
C -11.00999396   0.09167360  -0.11815185
C -11.94048291  -1.15534751   1.94328357
C -12.56730078  -2.19608356   1.03811221
C -11.53815752  -1.05260680  -0.95123158
C  11.13573096   0.00349433   1.84069065
C -11.20181582   1.27369510   2.13399692
C -13.19429671   0.73678403   0.81315742
C  12.54298667   0.68901635   1.84770580
C -12.14879336  -2.08882856  -0.43648965
C  13.46309381   0.35026677   0.70130362
C  10.70138828  -0.13771783   0.35435273
C  -9.52908423  -0.14535082   0.18804413
C  12.80225546   0.69341434  -0.62478249
C  11.40836030   0.24667236  -0.66359436
C  10.20055116   0.82260473   2.72658586
C  11.20824909  -1.34876402   2.43930299
C -11.33549620  -0.80681757  -2.41135686
C  -8.56104507   0.68657403  -0.15531738
C   9.36180380  -0.59573128   0.19935638
C  10.89699965   0.33705835  -2.11247178
C  -7.06954149   0.58345196   0.01258832
C   8.79596165  -1.57428198  -0.63651187
C  -6.50930153  -0.70387226   0.54669603
C   7.41181802  -1.98263869  -0.71315885
C  -6.23966415   1.51818735  -0.44455720
C   7.32928897  -3.43385244  -1.07235702
C   6.38186269  -1.11101655  -0.81011558
C  -4.73296695   1.63834530  -0.46729380
C   4.97410191  -1.33917192  -0.98103593
C  -4.03649402   2.77047597  -0.80918486
C  -2.59888843   2.82435608  -0.63769251
C   4.08830996  -0.38112286  -0.98723233
C   2.66980834  -0.55193588  -1.12906893
C  -2.15641497   4.24018025  -0.51483323
C  -1.74429505   1.77009315  -0.87628570
C   1.89042484   0.53451572  -1.04552706
C   2.09509405  -2.00730076  -1.34702061
C  -0.33333843   1.63730329  -0.74680856
C   0.41844413   0.56861388  -1.01094915
H -11.07513535   1.07308803  -0.71023729
H -12.55899005  -1.01830473   2.72716332
H -10.94271093  -1.46747818   2.32172715
H -12.06046088  -3.22318689   1.29513495
H  -9.98106057   1.34210119   2.45699812
H -11.27595498   2.12078197   1.50598017
H -11.86813619   1.53613432   3.19636311
H -13.51665617  -0.01054678  -0.10384244
H -13.94448478   1.10262266   1.64811631
H -12.97853074   1.83384741   0.51129383
H  12.43074544   1.77371520   1.72885519
H  13.07802542   0.51822671   2.76125361
H -12.58841130  -2.76353126  -1.13276250
H  13.77766251  -0.88899797   0.69695412
H  -9.17395854  -1.13872243   0.66965396
H  13.40735309   0.42135548  -1.57854332
H  12.80936109   1.77036754  -0.74245959
H   9.18080387   0.24893195   2.89688434
H  10.24691719   1.92279101   2.11610927
H  10.63125997   0.64312620   3.74604881
H  11.96961459  -1.76567547   1.79445516
H  10.26643177  -1.80081973   2.43350661
H  11.62182621  -1.13654123   3.42892217
H -10.28668920  -0.53953307  -2.59880332
H -12.07228159  -0.11560694  -2.85633693
H -11.36077214  -1.71239064  -3.09547896
H -14.61868761  -2.68088253   0.57110415
H   8.64725831  -0.25489597   0.96759709
H  -8.59516981   1.49146526  -0.62918583
H  11.34699252  -0.42326113  -2.74552485
H   9.72968044   0.22955288  -2.30639571
H  11.17116387   1.28867017  -2.55305055
H  14.96089963   0.94297104   1.81122407
H   9.48169604  -2.27403214  -1.25354581
H  -5.39428498  -0.55895028   1.08512521
H  -7.15963296  -1.18073893   1.45945973
H  -6.46192874  -1.67606191  -0.11749041
H  -6.79450074   2.44479769  -0.74276204
H   7.89661954  -4.16151395  -0.48659336
H   6.10053610  -3.80056357  -0.67946631
H   7.53450738  -3.64127263  -2.43865187
H   6.52331858  -0.08312906  -0.69677152
H  -4.32639753   0.72086035  -0.07588265
H   4.55301041  -2.49354265  -1.08534160
H  -4.50354467   3.62440690  -1.15642454
H   4.30093115   0.67190687  -0.80169225
H  -1.03168619   4.24922099  -0.60154011
H  -2.47622486   4.64266113   0.55847504
H  -2.69341596   5.05201055  -1.19464811
H  -2.20547847   0.86298646  -1.03867972
H   2.35596896   1.47584388  -0.66487104
H   2.66617173  -2.65722170  -0.56132008
H   1.04889927  -1.94843843  -1.13996702
H   2.50297274  -2.14816771  -2.24220157
H   0.14155881   2.73325840  -0.52845471
H  -0.35021808  -0.27961534  -1.37594575




