%nproc=4
%Mem=2GB
# td(NStates=1) CAM-B3LYP/6-31G(d,p) nosymm

lutein-abs Single Point

0 1
O -13.96689000  -2.12845000   1.07540000
O  14.67710000   1.00419900   0.86452000
C -11.78764000   0.23404000   1.25389000
C -10.94119000   0.12898000  -0.04757000
C -11.93041000  -1.16796000   1.86844000
C -12.54438000  -2.20830000   0.93788000
C -11.44205000  -0.97910000  -0.96249000
C  11.11835000  -0.00370100   1.77176000
C -11.10606000   1.15879000   2.26695000
C -13.16184000   0.82852000   0.91177000
C  12.47247000   0.71914900   1.86555000
C -12.12839000  -2.02132000  -0.49472000
C  13.43207000   0.33022900   0.75562000
C  10.61059000  -0.03145100   0.31983000
C  -9.46666000  -0.08220000   0.19295000
C  12.82918000   0.72212900  -0.57577000
C  11.38133000   0.32174900  -0.72701000
C  10.13204000   0.74822900   2.68346000
C  11.24719000  -1.44797100   2.29074000
C -11.08233000  -0.84579000  -2.41432000
C  -8.50762000   0.75914000  -0.20860000
C   9.21532000  -0.48872100   0.15365000
C  10.90328000   0.40947900  -2.15241000
C  -7.06728000   0.58989000  -0.01628000
C   8.81250000  -1.46441100  -0.67281000
C  -6.59617000  -0.65583100   0.68052000
C   7.42703000  -1.91515100  -0.86244000
C  -6.24210000   1.55897900  -0.47027000
C   7.27497000  -3.37943100  -1.17983000
C   6.39522000  -1.04985100  -0.76483000
C  -4.79989000   1.60725900  -0.38800000
C   4.98428000  -1.34797100  -0.87293000
C  -4.07489000   2.64413900  -0.84814000
C  -2.61748000   2.76724900  -0.82344000
C   4.03033000  -0.39916100  -0.79782000
C   2.59504000  -0.61000100  -0.89271000
C  -2.10255000   4.18196900  -0.76916000
C  -1.81966000   1.67550900  -0.86322000
C   1.77917000   0.46856900  -0.80704000
C   2.10075000  -2.01726100  -1.08530000
C  -0.37980000   1.63986900  -0.79468000
C   0.34066000   0.50135900  -0.88019000
H -11.04829000   1.08096000  -0.58487000
H -12.54446000  -1.12271000   2.77338000
H -10.94089000  -1.52218000   2.17868000
H -12.21906000  -3.20666000   1.27103000
H -10.13882000   0.76926000   2.59381000
H -10.93361000   2.15128000   1.83828000
H -11.73906000   1.28188000   3.15111000
H -13.69395000   0.23200000   0.17153000
H -13.79139000   0.87118000   1.80507000
H -13.04923000   1.84894000   0.53020000
H  12.32177000   1.80363900   1.80471000
H  12.91949000   0.51511900   2.84741000
H -12.44391000  -2.80030000  -1.18966000
H  13.59296000  -0.75826100   0.76925000
H  -9.19592000  -1.00271000   0.70541000
H  13.41692000   0.28986900  -1.39382000
H  12.92641000   1.81120900  -0.68440000
H   9.19299000   0.20581900   2.81415000
H   9.90408000   1.74208900   2.28699000
H  10.57288000   0.87624900   3.67695000
H  11.99263000  -2.01593100   1.72800000
H  10.29516000  -1.97708100   2.20011000
H  11.53919000  -1.45299100   3.34617000
H -10.00186000  -0.72060000  -2.53722000
H -11.55488000   0.04287000  -2.84833000
H -11.39834000  -1.71677000  -2.99243000
H -14.36364000  -2.66615000   0.37969000
H   8.46633000  -0.02760100   0.79370000
H  -8.80543000   1.67039000  -0.72654000
H  11.31924000  -0.40355100  -2.75912000
H   9.81880000   0.37368900  -2.24056000
H  11.26157000   1.34254900  -2.60221000
H  15.07986000   0.75053900   1.70315000
H   9.57029000  -2.00806100  -1.23592000
H  -5.51248000  -0.70067100   0.77611000
H  -7.02304000  -0.71956000   1.68683000
H  -6.92333000  -1.54914000   0.13856000
H  -6.70488000   2.41649900  -0.95699000
H   7.57413000  -3.99744100  -0.32605000
H   6.25793000  -3.65551100  -1.45668000
H   7.93205000  -3.65555100  -2.01164000
H   6.63745000  -0.00207100  -0.59917000
H  -4.28052000   0.77804900   0.08288000
H   4.69022000  -2.38304100  -1.01408000
H  -4.61448000   3.50066900  -1.25287000
H   4.34632000   0.63302900  -0.65248000
H  -1.02350000   4.25192900  -0.90127000
H  -2.35897000   4.65380900   0.18560000
H  -2.57263000   4.78439900  -1.55383000
H  -2.30228000   0.70673900  -0.97459000
H   2.25620000   1.43801900  -0.66900000
H   2.43173000  -2.65910100  -0.26245000
H   1.01494000  -2.07797100  -1.13848000
H   2.50473000  -2.44586100  -2.00829000
H   0.15655000   2.57584900  -0.66056000
H  -0.19585000  -0.43490100  -1.01094000




