%NProcShared=4
#n B3LYP/SVP Opt

 dihydrobiliverdin-s0-geom

0 1
O          5.65778       -1.13833        2.82479
O         -0.45888        2.43928       -4.23219
O         -2.05856        0.95950       -3.78020
O         -5.70310       -4.33722        2.07292
O         -5.10600       -3.28770        3.94318
O          1.15444        4.09469       -2.10801
N          0.94483       -2.49211        0.76075
N          4.38369       -1.63640        1.03749
N         -1.63551        0.91358        0.56426
N         -0.57420        3.31131       -0.78541
C          4.39543       -2.61599       -0.01886
C          3.12149       -3.48269        0.02585
C          1.87569       -2.66461       -0.19213
C          1.48646       -2.01002       -1.35239
C          0.26390       -1.39217       -1.07325
C         -0.02921       -1.70447        0.26522
C          5.64469       -3.42970        0.27550
C         -0.61862       -0.67230       -2.07286
C          6.24191       -2.96222        1.40132
C         -1.22460       -1.39421        1.09517
C         -1.94650       -0.25308        1.17107
C          5.43203       -1.83177        1.84499
C         -3.09846       -0.09052        1.94487
C          2.21192       -2.03561       -2.66810
C          6.06661       -4.53544       -0.65716
C         -3.49581        1.23348        1.78049
C          0.03269        0.57056       -2.70438
C         -2.56719        1.82773        0.92878
C         -3.77851       -1.14890        2.78977
C          7.46258       -3.37368        2.16151
C         -4.40850       -2.24863        1.91549
C         -4.68678        1.92421        2.39434
C         -2.60919        3.12964        0.55027
C         -0.90593        1.33013       -3.60700
C         -1.63732        3.85197       -0.31984
C          8.17528       -4.49787        2.03022
C         -5.09420       -3.32187        2.72059
C         -1.75031        5.28087       -0.75762
C         -0.65103        5.53542       -1.50710
C          0.09119        4.28508       -1.53939
C         -2.90080        6.16074       -0.37270
C         -0.14432        6.78173       -2.18207
C         -3.24833        7.32806       -0.92560
H          4.50611       -2.10430       -0.99629
H          3.06909       -3.96559        1.02668
H          3.15641       -4.28602       -0.73952
H          0.97619       -2.89290        1.72539
H          3.68000       -0.89211        1.15580
H         -0.88269       -1.38440       -2.88422
H         -1.57058       -0.39060       -1.58540
H         -1.50719       -2.20890        1.75202
H          3.09239       -2.70599       -2.63820
H          1.53310       -2.41760       -3.45859
H          2.57661       -1.02498       -2.93091
H          6.14920       -4.11579       -1.68133
H          5.30171       -5.33838       -0.66461
H          7.04278       -4.97879       -0.44240
H          0.39159        1.25139       -1.91223
H          0.90251        0.27822       -3.31579
H         -0.80381        1.06850       -0.03320
H         -4.59031       -0.70960        3.39791
H         -3.03669       -1.57539        3.49872
H          7.79330       -2.69180        2.93988
H         -3.64111       -2.73879        1.28451
H         -5.16159       -1.78250        1.24372
H         -5.29701        1.26311        3.03421
H         -5.34532        2.30780        1.58727
H         -4.34031        2.77539        3.01691
H         -3.43169        3.72068        0.92570
H          7.94741       -5.29152        1.34608
H          9.03359       -4.65391        2.67629
H         -1.03162        2.95621       -4.81631
H         -3.55682        5.81490        0.41511
H         -0.72490        7.68909       -1.98561
H          0.87671        6.99499       -1.80231
H         -0.08499        6.61159       -3.27720
H         -6.15369       -5.04569        2.55419
H         -4.12317        7.84997       -0.55010
H         -2.74208        7.78411       -1.75410

