--Link1--
#n CAM-B3LYP/6-31G(d,p) Opt Freq=savenormalmodes

neoxanthin-s0-geom-freq

  0  1
O,11.68006562,0.88358744,-0.861355
O,13.14729762,-2.43173656,1.246662
O,-10.37696338,-0.68475856,2.233576
O,-14.32647438,-1.16080556,0.444504
C,10.95353562,-0.25845056000000005,-0.387216
C,11.92275462,0.46550243999999996,0.487825
C,11.34191862,-1.55459956,-1.129307
C,13.33134462,-0.06539256000000002,0.711244
C,12.873235619999999,-1.7480355600000002,-1.102245
C,13.547346619999999,-1.50133256,0.244079
C,11.45913962,1.4497394399999999,1.534578
C,9.48555762,0.0016824399999999864,-0.254398
C,10.619219619999999,-2.78204356,-0.551612
C,10.90970262,-1.39713356,-2.596494
C,8.73786862,-0.33328256,0.799432
C,7.29400362,-0.09215756000000001,0.952213
C,6.5640486199999994,-1.12947756,1.763181
C,6.71178262,0.99255444,0.401285
C,5.30698562,1.3385454399999999,0.419474
C,-11.84788238,-0.26868456,-1.282568
C,-11.48421138,-0.44766256000000004,1.3673
C,-12.53827738,-1.64456256,-1.179712
C,-13.18676138,-1.96957856,0.164421
C,-12.19432438,-1.80394356,1.303352
C,-10.98088338,-0.03814756000000001,-0.035172
C,-10.97574738,-0.26758956,-2.543967
C,-12.884815380000001,0.8619724400000001,-1.431008
C,-12.35760938,0.64107344,1.997485
C,4.82240062,2.46064244,-0.143698
C,-9.80032038,0.51448044,-0.105043
C,3.4191826199999995,2.87149044,-0.201041
C,-8.58814638,1.02504644,-0.086592
C,3.1979976199999993,4.35910344,-0.287092
C,2.420002619999999,1.95977144,-0.192161
C,-7.34845738,0.23972743999999996,-0.13733
C,-7.50148438,-1.25448156,-0.136866
C,-6.169583380000001,0.89763844,-0.153282
C,1.0005706199999995,2.21371244,-0.192227
C,-4.84285838,0.32585843999999997,-0.18189
C,0.07150761999999942,1.2343554399999999,-0.207593
C,-3.7237153800000007,1.07655544,-0.185203
C,-1.3465653800000004,1.48822444,-0.197518
C,-2.356049380000001,0.58420344,-0.204867
C,-2.1438863800000005,-0.90445356,-0.228636
H,13.59275862,-0.008787560000000014,1.772593
H,14.00959862,0.61022244,0.178865
H,13.10281462,-2.76434856,-1.437036
H,13.32696762,-1.0606485600000002,-1.824064
H,14.62163162,-1.67502856,0.127182
H,11.32386562,0.9583754400000001,2.503238
H,12.21752062,2.2288994399999997,1.659907
H,10.52035162,1.92055644,1.248938
H,9.02481362,0.48179244,-1.114939
H,9.53658062,-2.68031256,-0.644604
H,10.92381062,-3.67479756,-1.104736
H,10.85412362,-2.96764456,0.497062
H,11.33235062,-0.48614156000000003,-3.027007
H,11.25911062,-2.25045156,-3.185562
H,9.82101762,-1.35334456,-2.691769
H,12.303731619999999,-2.1370555600000003,1.607279
H,9.215288619999999,-0.8614955599999999,1.625765
H,5.5252056199999995,-0.8670435599999999,1.959336
H,6.57883962,-2.10156156,1.25799
H,7.05886762,-1.2710295600000001,2.730322
H,7.35804262,1.70128044,-0.112688
H,4.61607562,0.66386744,0.915968
H,-13.28408038,-1.73007456,-1.981457
H,-11.792985380000001,-2.42523556,-1.374179
H,-13.49559238,-3.02567956,0.143718
H,-12.694011380000001,-1.99126556,2.257797
H,-11.41451638,-2.56298056,1.189862
H,-11.592172380000001,-0.46487156,-3.426455
H,-10.48465138,0.69824844,-2.683966
H,-10.19846138,-1.03453656,-2.491103
H,-13.59684638,0.8791534400000001,-0.608485
H,-12.382356380000001,1.83144844,-1.483986
H,-13.44871638,0.72456844,-2.360313
H,-12.58012638,0.35472943999999995,3.028533
H,-11.81930738,1.59389944,2.009139
H,-13.30022838,0.77047444,1.468785
H,5.53694462,3.15782244,-0.581775
H,-9.82275938,0.10713443999999998,2.221842
H,-14.95463838,-1.26940556,-0.279182
H,-8.476348380000001,2.10744544,-0.023923
H,2.1586336199999994,4.6286454400000006,-0.470602
H,3.5194246199999992,4.85532144,0.635085
H,3.7991826199999994,4.78320844,-1.098472
H,2.701211619999999,0.9087164400000001,-0.199251
H,-6.55290938,-1.77577856,-0.013747
H,-8.17642738,-1.5576065600000002,0.669254
H,-7.95684838,-1.5946845600000001,-1.07325
H,-6.2063483800000006,1.98629444,-0.141046
H,0.6573396199999995,3.24492044,-0.169792
H,-4.75550738,-0.75561356,-0.200811
H,0.41569761999999943,0.20341043999999997,-0.224682
H,-3.8343073800000007,2.1600614399999998,-0.168755
H,-1.6268653800000006,2.54062544,-0.179842
H,-1.0904373800000005,-1.1793895600000002,-0.242704
H,-2.600295380000001,-1.3737235600000002,0.648907
H,-2.6165093800000006,-1.3477425600000001,-1.111062

