%CPU=0-6
%Mem=7GB
%Chk=lutein-charged-tunado.chk
# wB97XD/Def2TZVP iop(3/107=0112500000,3/108=0112500000) opt

lutein-charged-tunado

1 2
O        -13.90308       -2.31631        0.84430
O         14.70289        0.94212        0.70087
C        -11.77578        0.11612        1.29669
C        -10.93533        0.17919       -0.01213
C        -11.89722       -1.35213        1.73879
C        -12.47738       -2.29519        0.68860
C        -11.42988       -0.81239       -1.05450
C         11.12536        0.08085        1.70420
C        -11.09415        0.91884        2.41077
C        -13.15618        0.73767        1.03193
C         12.49269        0.78680        1.73460
C        -12.09009       -1.91698       -0.71305
C         13.43531        0.29855        0.64874
C         10.60386       -0.04100        0.26253
C         -9.46178       -0.05320        0.19428
C         12.82718        0.59961       -0.70408
C         11.37069        0.22199       -0.81211
C         10.16051        0.91375        2.57014
C         11.23653       -1.32762        2.32120
C        -11.09965       -0.48326       -2.48061
C         -8.50278        0.81766       -0.13800
C          9.20283       -0.48004        0.14116
C         10.87798        0.21813       -2.23450
C         -7.06661        0.62439        0.01968
C          8.77533       -1.51059       -0.60114
C         -6.59346       -0.67284        0.61175
C          7.38702       -1.95381       -0.74888
C         -6.23806        1.62047       -0.37560
C          7.21600       -3.43386       -0.96531
C          6.36395       -1.07088       -0.70325
C         -4.80114        1.64966       -0.31765
C          4.95519       -1.35678       -0.77744
C         -4.06740        2.70163       -0.73475
C         -2.61400        2.81602       -0.73365
C          4.00631       -0.39661       -0.74020
C          2.57421       -0.60035       -0.80352
C         -2.09279        4.22908       -0.70536
C         -1.81609        1.72078       -0.77324
C          1.76561        0.49045       -0.74874
C          2.06216       -2.00861       -0.92820
C         -0.38281        1.67948       -0.73135
C          0.33319        0.53256       -0.79692
H        -11.05291        1.18598       -0.42778
H        -12.51356       -1.42274        2.63730
H        -10.90476       -1.71806        2.01475
H        -12.10074       -3.30701        0.89192
H        -10.12790        0.49453        2.68713
H        -10.92418        1.95215        2.09966
H        -11.72406        0.93608        3.30274
H        -13.67196        0.25302        0.20519
H        -13.79223        0.64361        1.91351
H        -13.05265        1.80099        0.80167
H         12.35576        1.86383        1.59849
H         12.94341        0.64463        2.72246
H        -12.40122       -2.60809       -1.49357
H         13.57392       -0.78617        0.74250
H         -9.19183       -1.01661        0.61479
H         13.39153        0.08771       -1.48876
H         12.94281        1.67123       -0.90552
H          9.21847        0.39620        2.75249
H          9.94169        1.87560        2.10242
H         10.61672        1.10833        3.54315
H         11.94868       -1.94980        1.77753
H         10.27159       -1.83596        2.29785
H         11.56103       -1.26451        3.36276
H        -10.02584       -0.32144       -2.60260
H        -11.59690        0.44358       -2.78120
H        -11.41027       -1.27515       -3.16164
H        -14.28235       -2.76978        0.08957
H          8.47181        0.04427        0.74870
H         -8.80272        1.77056       -0.56725
H         11.26270       -0.64898       -2.77970
H          9.79366        0.20759       -2.30808
H         11.25619        1.10304       -2.75431
H         15.10063        0.75660        1.55289
H          9.52053       -2.11094       -1.11685
H         -5.51139       -0.72763        0.69336
H         -7.01102       -0.81281        1.61193
H         -6.92703       -1.51734        0.00355
H         -6.70305        2.51117       -0.79036
H          7.52568       -3.99174       -0.07728
H          6.19378       -3.71770       -1.20331
H          7.85460       -3.76901       -1.78684
H          6.62074       -0.01960       -0.61088
H         -4.28710        0.79012        0.09625
H          4.64897       -2.39264       -0.85875
H         -4.60505        3.58114       -1.08220
H          4.33209        0.63663       -0.65241
H         -1.01462        4.29157       -0.82785
H         -2.35604        4.71753        0.23666
H         -2.55293        4.81447       -1.50560
H         -2.30163        0.75343       -0.86075
H          2.25428        1.45717       -0.65787
H          2.39069       -2.61422       -0.08002
H          0.97760       -2.05768       -0.97008
H          2.45223       -2.48113       -1.83299
H          0.16144        2.61290       -0.63448
H         -0.21205       -0.40071       -0.88894

--Link1--

%CPU=0-6
%Mem=7GB
%OldChk=lutein-charged-tunado.chk
%Chk=lutein-charged-tunado-sp.chk
# wB97XD/Def2TZVP iop(3/107=0112500000,3/108=0112500000) Geom=Checkpoint Guess=Read

lutein-charged-tunado-sp

0 1
