%nproc=7
%mem=7GB
# wB97XD/Def2TZVP iop(3/107=0075000000,3/108=0075000000) opt

TITLE

0 1
 8 -13.88889000000000 -2.32824100000000  0.84142100000000
 8  14.69435500000000  0.93119700000000  0.72198500000000
 6 -11.77038000000000  0.10524100000000  1.29701400000000
 6 -10.92937900000000  0.17200200000000 -0.00999300000000
 6 -11.88642500000000 -1.36290800000000  1.73848600000000
 6 -12.46371200000000 -2.30647600000000  0.68811000000000
 6 -11.41765800000000 -0.82139600000000 -1.05266800000000
 6  11.11913100000000  0.05383400000000  1.71154200000000
 6 -11.09344200000000  0.91013700000000  2.41132900000000
 6 -13.15242000000000  0.72084500000000  1.03110700000000
 6  12.48525700000000  0.75982300000000  1.75238500000000
 6 -12.07463700000000 -1.92794000000000 -0.71265100000000
 6  13.42794100000000  0.28783900000000  0.66021800000000
 6  10.59782600000000 -0.04601400000000  0.26901700000000
 6 -9.45559400000000 -0.05367700000000  0.19893300000000
 6  12.82030900000000  0.60831700000000 -0.68774400000000
 6  11.36425800000000  0.23231000000000 -0.80134700000000
 6  10.15413500000000  0.87200800000000  2.58979700000000
 6  11.23125300000000 -1.36317500000000  2.30644400000000
 6 -11.08462000000000 -0.49123900000000 -2.47731900000000
 6 -8.50044100000000  0.81985700000000 -0.13453000000000
 6  9.19679400000000 -0.48296300000000  0.14094200000000
 6  10.87198500000000  0.24808800000000 -2.22329900000000
 6 -7.06348000000000  0.63219100000000  0.02651300000000
 6  8.77054700000000 -1.50203500000000 -0.61649100000000
 6 -6.58806300000000 -0.66092900000000  0.62451200000000
 6  7.38177900000000 -1.94212100000000 -0.77138100000000
 6 -6.23809000000000  1.62851200000000 -0.37082300000000
 6  7.20968700000000 -3.41927400000000 -1.00265500000000
 6  6.36086200000000 -1.05868900000000 -0.71877500000000
 6 -4.80055900000000  1.66153500000000 -0.30981600000000
 6  4.95123700000000 -1.34263500000000 -0.79867500000000
 6 -4.06929700000000  2.71268900000000 -0.72957700000000
 6 -2.61524100000000  2.82783400000000 -0.72477200000000
 6  4.00442000000000 -0.38239100000000 -0.75321600000000
 6  2.57150400000000 -0.58475600000000 -0.82133700000000
 6 -2.09515400000000  4.24026500000000 -0.68096400000000
 6 -1.81867500000000  1.73365800000000 -0.77453800000000
 6  1.76399800000000  0.50458100000000 -0.75662900000000
 6  2.06040100000000 -1.99132900000000 -0.96159900000000
 6 -0.38443100000000  1.69211000000000 -0.73056800000000
 6  0.33064600000000  0.54685900000000 -0.80693400000000
 1 -11.05080600000000  1.17845600000000 -0.42605500000000
 1 -12.50275100000000 -1.43587300000000  2.63705200000000
 1 -10.89252300000000 -1.72569300000000  2.01410800000000
 1 -12.08639100000000 -3.31797400000000  0.89212800000000
 1 -10.12615600000000  0.48890600000000  2.68941300000000
 1 -10.92614400000000  1.94390800000000  2.09972100000000
 1 -11.72515600000000  0.92569700000000  3.30220200000000
 1 -13.66500400000000  0.23473500000000  0.20304600000000
 1 -13.78935000000000  0.62276500000000  1.91180200000000
 1 -13.05273000000000  1.78499600000000  0.80235500000000
 1  12.34763500000000  1.83877900000000  1.63135300000000
 1  12.93595400000000  0.60376600000000  2.73837600000000
 1 -12.38166500000000 -2.62033800000000 -1.49383800000000
 1  13.56689700000000 -0.79826400000000  0.73831500000000
 1 -9.18221000000000 -1.01479400000000  0.62302500000000
 1  13.38486300000000  0.10802200000000 -1.47988000000000
 1  12.93583800000000  1.68298500000000 -0.87310300000000
 1  9.21268100000000  0.35049900000000  2.76455100000000
 1  9.93413100000000  1.84066200000000  2.13655300000000
 1  10.61070800000000  1.05230100000000  3.56553800000000
 1  11.94431900000000 -1.97635900000000  1.75355000000000
 1  10.26655800000000 -1.87188500000000  2.27466800000000
 1  11.55513300000000 -1.31552900000000  3.34916100000000
 1 -10.01090900000000 -0.32515900000000 -2.59568000000000
 1 -11.58451100000000  0.43387100000000 -2.77914700000000
 1 -11.39017800000000 -1.28444100000000 -3.15927800000000
 1 -14.26721400000000 -2.77982500000000  0.08497700000000
 1  8.46496000000000  0.03278900000000  0.75511700000000
 1 -8.80342400000000  1.77033900000000 -0.56741700000000
 1  11.25585500000000 -0.61239300000000 -2.77968000000000
 1  9.78754800000000  0.23980500000000 -2.29735800000000
 1  11.25183200000000  1.13935200000000 -2.73109500000000
 1  15.09141900000000  0.73545600000000  1.57214000000000
 1  9.51606100000000 -2.09452200000000 -1.14118700000000
 1 -5.50596900000000 -0.71190900000000  0.70961400000000
 1 -7.00857200000000 -0.79851400000000  1.62390200000000
 1 -6.91742100000000 -1.50862200000000  0.01829500000000
 1 -6.70444300000000  2.51648400000000 -0.79025100000000
 1  7.51845600000000 -3.98609100000000 -0.11990900000000
 1  6.18734400000000 -3.69997800000000 -1.24437900000000
 1  7.84896600000000 -3.74646800000000 -1.82699700000000
 1  6.61855700000000 -0.00852200000000 -0.61498600000000
 1 -4.28475900000000  0.80515100000000  0.10890400000000
 1  4.64411000000000 -2.37745900000000 -0.89120700000000
 1 -4.60724200000000  3.59026600000000 -1.08200700000000
 1  4.33076800000000  0.64981500000000 -0.65411300000000
 1 -1.01632000000000  4.30449700000000 -0.79775800000000
 1 -2.36357800000000  4.71980800000000  0.26423200000000
 1 -2.55217500000000  4.83257100000000 -1.47806500000000
 1 -2.30423400000000  0.76718100000000 -0.87319600000000
 1  2.25211600000000  1.47064700000000 -0.65475100000000
 1  2.38771500000000 -2.60542900000000 -0.11894100000000
 1  0.97583800000000 -2.04043700000000 -1.00636700000000
 1  2.45301300000000 -2.45426900000000 -1.87036600000000
 1  0.15954100000000  2.62469900000000 -0.62288600000000
 1 -0.21433100000000 -0.38562500000000 -0.90974700000000

