%nproc=4
%Mem=2GB
# td(NStates=1) B3LYP/6-31G(d,p) nosymm

b-caroten-abs Single Point

0 1
C  12.22837024   0.66159668  -0.61364851
C -12.10660249   0.03993541   0.77750335
C  13.58610031  -0.11339140  -0.48133544
C -12.94483019   1.27109921   1.19001357
C  13.38390927  -1.67198982  -0.66019778
C -13.42529346   2.09492479   0.04744379
C  11.05097323  -0.00558087   0.12489307
C -11.06490154   0.48204000  -0.16891245
C  12.37644635  -2.07945304   0.45018651
C -12.23312696   2.65919272  -0.71517631
C  11.24816550  -1.18312221   0.78042800
C -11.10270829   1.64437393  -0.83523739
C  11.77421554   0.78050382  -2.28195728
C  12.49145047   2.01130711  -0.30529674
C -12.99584118  -0.96363529   0.12150300
C -11.57083395  -0.56117389   2.11523409
C   9.86655149   0.88447623   0.25569497
C  -9.95486778  -0.44923711  -0.27877421
C  10.23591798  -1.74380714   1.76659918
C -10.04288583   2.03198301  -1.87871498
C   8.52376925   0.51176711   0.26412180
C  -8.53937368  -0.30258781  -0.20164427
C   7.42852594   1.32724366   0.49730212
C  -7.59941822  -1.30242889  -0.26866210
C   7.60400068   2.83506818   0.87375818
C  -8.01580850  -2.80198260  -0.69548053
C   6.16648148   0.79088159   0.27832777
C  -6.26187864  -0.95698038  -0.04916703
C   4.85094855   1.38001935   0.32703558
C  -5.11516581  -1.75178503  -0.21402590
C   3.73574949   0.56056981   0.19899826
C  -3.86482436  -1.23114493  -0.12041193
C   2.42496361   1.08044734   0.31466314
C  -2.57905417  -1.92482719  -0.26138208
C   2.30337239   2.58488337   0.61772440
C  -2.67153730  -3.37264513  -0.59265406
C   1.23533583   0.39447913   0.15244244
C  -1.36014743  -1.27036539  -0.11156610
C   1.04792794  -0.96497333  -0.04942718
C   0.00366638  -1.72533367  -0.21054476
H  14.03996666   0.10655309   0.59043305
H  14.38240363   0.34345459  -1.23817100
H -12.29749491   1.85113653   1.79257817
H -13.70108814   0.99855337   1.88660142
H  14.23610614  -2.23094169  -0.56351212
H  13.03297894  -2.04341693  -1.65644491
H -14.12288645   2.95025880   0.54208226
H -14.13954574   1.51214853  -0.53459030
H  12.91829270  -2.43172079   1.46780880
H  11.81523619  -3.04050458   0.36759850
H -11.92097241   3.43067088  -0.11854340
H -12.47917388   3.16802412  -1.71027321
H  11.62219261  -0.21553995  -2.73949340
H  12.60511499   1.15142786  -2.74198301
H  10.76189488   1.21959543  -2.42764422
H  12.50588622   2.24231984   0.92203877
H  11.88597618   2.76196380  -0.62345632
H  13.60013287   2.07242357  -0.50452661
H -13.29564939  -0.68075090  -0.84181719
H -13.80094594  -1.14552009   0.85497904
H -12.49301472  -1.89134434  -0.13731401
H -10.97242602   0.03551187   2.62623964
H -10.85681017  -1.39406637   1.98949727
H -12.25852508  -0.95345041   2.85577189
H  10.06133062   1.98005026   0.43692476
H -10.58157325  -1.46289569  -0.40802897
H   9.63003500  -1.06938259   2.58497087
H  10.58110128  -2.51257960   2.46263894
H   9.46552555  -2.48805687   1.18823553
H  -9.25346234   1.25427804  -2.04706414
H  -9.46105422   3.00158048  -1.62631631
H -10.57523720   2.34738423  -2.78662247
H   8.41024708  -0.43768707  -0.14986718
H  -8.33459983   0.88997169  -0.22461588
H   8.32141104   2.86483801   1.72513282
H   6.70244295   3.40986078   1.03673813
H   7.93406920   3.21083360  -0.22456240
H  -8.82448960  -2.66421509  -1.47319176
H  -8.31567830  -3.17151646   0.10292332
H  -7.13347731  -3.30591665  -1.28142696
H   5.96843209  -0.34219756  -0.01567551
H  -6.02613807   0.18256976   0.02794078
H   4.71154332   2.38759033   0.63532248
H  -5.27536025  -2.76942387  -0.86952075
H   4.03837480  -0.41747542  -0.35355794
H  -3.84602586  -0.16251690  -0.03292423
H   2.71889608   3.07100039   1.53870678
H   1.02595232   2.91256973   0.70726268
H   2.70063066   3.02707198  -0.32986539
H  -3.13996895  -3.45543385  -1.67341503
H  -3.41534550  -3.98847079   0.05677732
H  -1.75284504  -4.10752595  -0.63061373
H   0.20709422   0.78153497   0.40974194
H  -1.44012742  -0.20693755   0.13051464
H   2.07911426  -1.59235606  -0.13014838
H   0.27348684  -2.85516040  -0.34517412




