%nproc=4
%Mem=2GB
# td(NStates=1) B3LYP/6-31G(d,p) nosymm

b-caroten-abs Single Point

0 1
C  12.25500388   0.62295560  -0.58794432
C -12.11868376   0.06453445   0.95870766
C  13.57713250  -0.23498410  -0.40409600
C -13.11892595   1.09684570   1.47033974
C  13.26596090  -1.71125983  -0.43062113
C -13.41242160   2.07366315   0.27920398
C  11.07841572   0.01697949   0.37147392
C -11.05657637   0.48857960  -0.09062501
C  12.44561505  -2.12490011   0.69835623
C -12.07883312   2.64931044  -0.39563746
C  11.24242107  -1.24122949   0.95952364
C -10.95967815   1.63605196  -0.67503139
C  11.76296153   0.47859023  -2.08937719
C  12.44428644   2.01602173  -0.24101389
C -12.97747402  -1.12444107   0.16530480
C -11.36825507  -0.70075520   2.20984711
C   9.91871397   0.85225810   0.47657879
C  -9.99078405  -0.56504542  -0.26663099
C  10.15541711  -1.67642943   2.00701072
C -10.04008780   2.00133171  -1.84265801
C   8.57433954   0.44747984   0.37241530
C  -8.65741174  -0.40991205  -0.20002903
C   7.37821103   1.30757727   0.35736901
C  -7.53609872  -1.28556636  -0.42228766
C   7.58840768   2.73005829   0.64575314
C  -7.96178152  -2.80281148  -0.72428127
C   6.23032226   0.74348388   0.04450843
C  -6.28695925  -0.85161898  -0.33974987
C   4.93822732   1.34501621   0.03125490
C  -5.09796950  -1.67056667  -0.45686092
C   3.71951868   0.62532984  -0.05384323
C  -3.90108868  -1.11989681  -0.34288362
C   2.43354605   1.24082620   0.03642655
C  -2.61410998  -1.80796646  -0.41329096
C   2.36325718   2.76176921   0.39747917
C  -2.62910446  -3.23570553  -0.79393738
C   1.25595906   0.61717029  -0.13861701
C  -1.46242404  -1.09426507  -0.33260979
C   0.99778455  -0.82298652  -0.21971170
C  -0.16329121  -1.57262311  -0.23054838
H  14.10365139   0.13691623   0.44441161
H  14.17423405   0.10755763  -1.26003028
H -12.63192083   1.59795299   2.38118155
H -13.96628974   0.60920670   1.82842257
H  14.14170421  -2.27561021  -0.41510131
H  12.67640458  -2.26249222  -1.27975667
H -14.06364448   2.93086356   0.75806435
H -13.89369901   1.43938492  -0.57912768
H  12.96431894  -1.91391932   1.63763912
H  12.13795126  -3.13533343   0.91765351
H -11.50700449   3.42966110   0.42138315
H -12.35800389   3.32463378  -1.28910882
H  11.27175707  -0.52944915  -2.50594207
H  12.44244094   1.02443237  -2.90762435
H  10.88805666   0.86875508  -2.08296792
H  12.71986453   2.36900172   0.79903820
H  11.66756755   2.52065072  -0.43659979
H  13.22540074   2.53967703  -0.73117119
H -13.48731372  -0.79336697  -0.76886414
H -13.50021199  -1.83242206   0.95217270
H -12.28761459  -1.76227764  -0.14844023
H -10.85017201  -0.16652079   2.70058369
H -10.84854294  -1.66345083   1.93725468
H -12.02265090  -1.21733057   2.94426759
H  10.09108461   1.80458585   0.49882247
H -10.48830228  -1.49372541  -0.45349050
H   9.52678025  -0.92815110   2.52593156
H  10.82641402  -2.12588571   2.92847418
H   9.47759058  -2.53329353   1.72091413
H  -9.30058488   1.35686129  -2.29612278
H  -9.36678908   2.83833054  -1.41836124
H -10.43805886   2.36412179  -2.69314527
H   8.32167393  -0.56394399   0.12488068
H  -8.54360413   0.60273697   0.14238791
H   7.99647723   2.94243516   1.57871795
H   6.56968297   3.29810077   0.55122629
H   8.27418933   2.99469125  -0.24989769
H  -8.59615995  -2.75076550  -1.62405920
H  -8.39156268  -3.26568920   0.34080884
H  -6.98896092  -3.35648772  -0.88984285
H   6.23123494  -0.43373873  -0.25048198
H  -6.26129887   0.15117789  -0.00169058
H   4.98877550   2.29618519   0.10682598
H  -5.17574400  -2.87413027  -0.62115231
H   3.87009962  -0.57273897  -0.19393981
H  -3.94152989  -0.06031399  -0.22368120
H   2.72118796   2.88863871   1.35171668
H   1.28586315   2.89433082   0.84883344
H   2.73992931   3.41211943  -0.37650490
H  -3.27429639  -3.51452237  -1.81068628
H  -2.97693313  -3.78537938   0.00498516
H  -1.61312337  -3.56665764  -1.02802239
H   0.32239455   1.11940467  -0.10113230
H  -1.49299859   0.02378679  -0.01417281
H   2.00144176  -1.20656009  -0.35608478
H  -0.02651490  -2.66935589  -0.36661380




