%nproc=4
%Mem=4GB
# td=(NStates=1) CAM-B3LYP/6-31G(d,p) 

TD

0 1
 8 -14.05506138133813 -2.14764314601460  0.09695995129513
 8  14.83407524432443  0.93859144574457 -0.32597200130013
 6 -11.81395425502550 -0.09870379547955  1.29883470347035
 6 -10.98132509500950  0.34235700670067  0.01211492429243
 6 -12.03511899249925 -1.51824630903090  1.35224306560656
 6 -12.71132452595260 -2.10756182098210 -0.02974882398240
 6 -11.48563385228523 -0.37061453975398 -1.31514700460046
 6  11.23355668626863  0.92807444994499  0.95905618531853
 6 -11.02755422862286  0.34906664546455  2.49123617431743
 6 -13.02747891029103  0.76423207010701  1.18062913971397
 6  12.62595977647765  1.60865029152915  0.58792617881788
 6 -12.35550653655366 -1.37934580238024 -1.24613738243824
 6  13.53593521442144  0.46946461906191  0.09947726662666
 6  10.63640311461146 -0.08680809100910 -0.00964737963796
 6 -9.53472223612361 -0.03027587578758  0.02886289388939
 6  12.96987496509651 -0.23081030043004 -1.08819440574057
 6  11.45055814461446 -0.62391743704370 -0.94300935973597
 6  10.26560344594459  2.19801911391139  0.93094580798080
 6  11.22244307680768  0.35298447384738  2.36617717901790
 6 -11.19023352085209  0.22216385788579 -2.63454571277128
 6 -8.44624072437244  0.83379836223622 -0.14952857535754
 6  9.28074300360036 -0.54772254805481  0.19975005880588
 6  10.96935688118812 -1.64675764256426 -1.93481308600860
 6 -6.99799112201220  0.48091533333333  0.00682859355936
 6  8.73949040544055 -1.73463326082608  0.09173403240324
 6 -6.56000742224222 -0.89915867276728  0.36530941954195
 6  7.28927741524152 -2.18476134813481  0.15269420712071
 6 -6.13184296029603  1.50203377787779 -0.25844770137014
 6  6.97775096929693 -3.60230395259526  0.24738495669567
 6  6.30727799679968 -1.25639592829283 -0.04413675607561
 6 -4.77475144884489  1.53247678687869 -0.30871178457846
 6  4.90885173107311 -1.53095093799380  0.08856107590759
 6 -4.05195656805681  2.64763778997900 -0.52446363536354
 6 -2.60846128422842  2.68258621622162 -0.56033878167817
 6  3.98200216571657 -0.50002050815081 -0.10902041844184
 6  2.56837388598860 -0.72794726622662 -0.02914786738674
 6 -1.89797834803480  3.90472505510551 -0.97598674607461
 6 -1.80775786128613  1.58720146454645 -0.35947196359636
 6  1.83044158915892  0.40458201970197 -0.12999156105611
 6  2.01419474057406 -2.05666845414541  0.17274964286429
 6 -0.44840709960996  1.56777809910991 -0.35016837663766
 6  0.41453628442844  0.46097776557656 -0.19664292509251
 1 -10.94967170867087  1.38455024032403 -0.13042488768877
 1 -12.90577405050505 -1.68796881058106  2.15398329302930
 1 -11.26377404700470 -2.00954014901490  1.62806608920892
 1 -12.27876150975098 -3.33555266256626 -0.14853999189919
 1 -9.95967136843684 -0.07927625202520  2.53188181208121
 1 -10.78194836143614  1.41344442144214  2.35608032993299
 1 -11.67635522782278  0.21323474247425  3.33092727052705
 1 -13.65059626142614  0.41820782308231  0.44046051635164
 1 -13.71352712331233  0.66473808120812  2.22172617461746
 1 -12.85622430783078  1.73426704850485  1.12402288558856
 1  12.18528589528953  2.49863481298130 -0.30859301610161
 1  12.92533696079608  2.04334837373737  1.33611121232123
 1 -12.44249772837284 -2.07852464896490 -2.16476066676668
 1  13.46064564936494 -0.13397314311431  0.91535187108711
 1 -9.35219758545855 -1.01010586958696  0.18410597059706
 1  13.66984212831283 -1.07235027432743 -1.13863901990199
 1  13.12672909040904  0.51876045394539 -1.84461438523852
 1  9.32857955555555  1.84129418121812  1.25699094649465
 1  10.27504936653665  2.74874747714771 -0.04439752425243
 1  10.49974364766476  2.82918789048905  1.70099625062506
 1  12.17427026832683 -0.43620086868687  2.18311473287329
 1  10.25544051465146  0.08565602460246  2.64438756685669
 1  11.43439433853385  1.05406320312031  3.16284122712271
 1 -10.21643414141414  0.24615452615262 -2.81123851955195
 1 -11.79012806910691  1.27583358185819 -2.90265733103310
 1 -11.41635948104810 -0.49735848714872 -3.40193795139514
 1 -14.42460573387339 -2.69202815541554 -0.70546875067507
 1  8.69842891089109  0.21788201340134  0.76708935513551
 1 -8.55342051095110  1.76265791859186 -0.27893321372137
 1  11.14074980948095 -2.76536803280328 -1.63133598509851
 1  10.04499736613661 -1.54357045874587 -2.15565149914992
 1  11.33088238193819 -1.45557864796480 -2.88372432053205
 1  15.13480266056606  1.41081918171817  0.50401837073707
 1  9.39332910921092 -2.41214429612961 -0.34352079457946
 1 -5.50741520252025 -1.20530768146815  0.09145654245425
 1 -6.41472037013701 -1.04147612081208  1.76533878627863
 1 -7.38191442664266 -1.77609605780578 -0.02908112291229
 1 -6.42869515601560  2.58369716481648 -0.41378458015802
 1  6.86303985298530 -3.88442186478648  1.49564926062606
 1  6.01839918511851 -3.85789097689769 -0.37340693189319
 1  7.80484038143814 -4.22101828642864 -0.20813384608461
 1  6.45278370527053 -0.34808204760476 -0.40579270117012
 1 -4.26393862546255  0.68731839703970 -0.06330238783878
 1  4.49111271477148 -2.44256350935094  0.51932427162716
 1 -4.70227627332733  3.55975395719572 -0.70740039553955
 1  4.22385246144615  0.55087242614261 -0.41059027642764
 1 -1.24148390659066  3.64319576627663 -1.72894116601660
 1 -1.27374021242124  4.13615077237724 -0.09731169096910
 1 -2.69204869296930  4.67702011751175 -1.26081437513751
 1 -2.37490637103710  0.84690131563156 -0.08142287228723
 1  2.35994503660366  1.57030101930193 -0.10002701780178
 1  2.63052157985799 -2.85906230863086  1.06677505600560
 1  0.84922999429943 -2.27676696779678  0.59375809070907
 1  1.98503125252525 -2.67455524272427 -0.90014425742574
 1  0.19930581548155  2.56399623932393 -0.35677266876688
 1 -0.00041293729373 -0.57994816461646 -0.20874152915291

