%nproc=4
%Mem=4GB
# td=(NStates=1) CAM-B3LYP/6-31G(d,p) 

TD

0 1
 8 -14.00028590379038 -2.07019540124012  0.55281553685369
 8  14.81767360416042  0.81013860046005  0.20182077797780
 6 -11.74765762536254 -0.02041596669667  1.27671249124913
 6 -10.97772473497350  0.27500027102710 -0.01338762596260
 6 -11.93924940554055 -1.52831731613161  1.50928877017702
 6 -12.62143553705371 -2.25421648644864  0.39224337523752
 6 -11.64803009190919 -0.47502498079808 -1.14595008490849
 6  11.22576590719072  0.93570521302130  1.17736801650165
 6 -10.91024249744975  0.52642438123812  2.52135918661866
 6 -13.10583674607461  0.73049869676968  1.10138121492149
 6  12.62208938943894  1.39743917041704  0.84298168436844
 6 -12.27022800870087 -1.69988785658566 -0.98249101780178
 6  13.55290691159116  0.30825849844985  0.43227054595460
 6  10.74647412171217 -0.08819823002300  0.10504408950895
 6 -9.50475923982398 -0.02839568776878  0.10598060566057
 6  13.09048702630263 -0.37042426182618 -0.80775636193619
 6  11.62011510031003 -0.56114115941594 -0.84929998879888
 6  10.28477536313631  2.11589090109011  1.08331104450445
 6  11.16754758725873  0.31368054345435  2.54133469476948
 6 -11.46425092259226  0.13969561106111 -2.49553181138114
 6 -8.52650875117512  0.86239122152215 -0.24724834733473
 6  9.26875180448045 -0.56565434123412  0.16917700150015
 6  11.15604555005500 -1.51140410721072 -2.01181078577858
 6 -7.20894221712171  0.58884612641264 -0.07014910421042
 6  8.74008046444644 -1.75268506600660 -0.14964010501050
 6 -6.69077049854986 -0.80063882078208  0.26924981358136
 6  7.35360384788479 -2.03429630163016 -0.09613067536754
 6 -6.25813558955896  1.53231680618062 -0.39784164076408
 6  6.97187038123812 -3.49694341654165  0.08934915311531
 6  6.36359362836284 -1.04775506420642 -0.28038038043804
 6 -4.88595256895690  1.53235677487749 -0.45972688608861
 6  5.01284213011301 -1.37331517441744 -0.14330211041104
 6 -4.09222059445945  2.64792781898190 -0.64527571657166
 6 -2.66712715081508  2.74180213781378 -0.78737148494849
 6  4.02891685718572 -0.50751125722572 -0.39300881728173
 6  2.66836388498850 -0.71712618411841 -0.21579653225323
 6 -2.04815336553655  4.12618720132013 -0.88211735913591
 6 -1.83541062656266  1.59413215761576 -0.58051406780678
 6  1.76289483448345  0.31619318081808 -0.49206776867687
 6  2.13493681478148 -2.11945473277328 -0.05138277037704
 6 -0.48545080398040  1.60869219051905 -0.70311367116712
 6  0.28823365416542  0.40974264206421 -0.55120838163816
 1 -10.93876061756175  1.26523830913091 -0.11470331553155
 1 -12.62496596969697 -1.87647766146615  2.47919581428143
 1 -10.83087075667567 -2.06529572457246  1.75496877947795
 1 -12.56873050665066 -3.44854396169617  0.46730159225923
 1 -10.06880228152815  0.04954663026303  2.59520814471447
 1 -10.62861302790279  1.72226530353035  2.40860558245825
 1 -11.20924851715171  0.29445286428643  3.44829900770077
 1 -13.76743794559456  0.32071807410741  0.25737220752075
 1 -13.91841761236124  0.67729933733373  2.03570757275728
 1 -12.89420810621062  1.77655127692769  0.94977546084608
 1  12.38180554725473  2.06397134663466  0.08228607180718
 1  12.87196162326233  2.11908594749475  1.78357595879588
 1 -12.48520199879988 -2.28476527302730 -2.07535172587259
 1  13.53477306210621 -0.35113485928593  1.23037337323732
 1 -9.17218958465847 -0.98822368136814  0.45498305830583
 1  13.82696784088409 -1.32849588888889 -0.90592574857486
 1  13.29225564306431  0.28033661156116 -1.62015193899390
 1  9.06430312791279  1.87199725152515  1.23164841224122
 1  9.99733159475948  2.72165476787679 -0.08839192369237
 1  10.47007068036804  2.86004097579758  1.85522167316732
 1  11.99181202250225 -0.32797004560456  2.88387480888089
 1  10.34012898349835 -0.23467600860086  2.81853498159816
 1  11.40628152725272  1.04331212801280  3.20655559855986
 1 -10.36716921492149  0.47819773047305 -2.79896729242924
 1 -12.00788984528453  1.10270626912691 -2.59727679297930
 1 -11.90555840094009 -0.62797154845485 -3.27856561416142
 1 -14.43296656995700 -2.91807075967597 -0.16762496629663
 1  8.59726879487949  0.25424564976498  0.66316896309631
 1 -8.82342751165117  1.85408706150615 -0.53280860126013
 1  11.37984371887189 -2.49821131713171 -1.82575542704270
 1  10.03438630503050 -1.32075817751775 -2.00570650465047
 1  11.77535682938294 -1.13785687578758 -2.89453540164016
 1  15.21416059635964  1.43009110891089  1.03561153005301
 1  9.45416519281928 -2.73985706740674 -0.30616705920592
 1 -5.65408986998700 -0.77818496919692  0.09161655845585
 1 -6.75512441054105 -1.10543251645164  1.40662291469147
 1 -7.08030426562656 -1.53428187638764 -0.29282749754975
 1 -6.70955324182418  2.44335313041304 -0.75011821352135
 1  5.88569211821182 -3.79946336893689  0.71827152285229
 1  6.64637198239824 -3.84443963176318 -1.04315390659066
 1  7.98618851625162 -4.12786897149715  0.36183315061506
 1  6.72859128602860  0.03096585718572 -0.52365448734873
 1 -4.08345057665767  0.74274393959396 -0.40057611521152
 1  4.82491609510951 -2.53681293429343 -0.16483414421442
 1 -4.75442148784879  3.64552253405341 -0.82019167466747
 1  4.27497757395740  0.50246758565857 -0.63412262966297
 1 -1.35437519571957  4.14716616331633 -1.60920919281928
 1 -1.65869870827083  4.29104626192619  0.13866190639064
 1 -2.83915340344034  4.76905932143214 -1.23050134383438
 1 -2.25200408080808  0.64600122562256 -0.65619034903490
 1  2.20761980408041  1.24914890409041 -0.54475149024902
 1  2.33308183588359 -2.51564796719672  1.00204858335834
 1  0.94321939323932 -2.11242053315332 -0.36850813591359
 1  2.78353110251025 -2.93797158435844 -0.67045128812881
 1  0.14151003590359  2.31932177187719 -0.52152914441444
 1 -0.22552544854485 -0.49356952675268 -0.15820647564757

