%nproc=4
%Mem=4GB
# td=(NStates=1) CAM-B3LYP/6-31G(d,p) 

TD

0 1
 8 -14.24902077727773 -1.77590597229723  0.51814206950695
 8  14.77195903270327  1.26005359195920  0.26697729362936
 6 -11.81188404800480  0.28933500840084  1.33310813081308
 6 -11.00748771127113  0.45419819081908  0.00103381618162
 6 -12.13532901350135 -1.26518100250025  1.57646548784878
 6 -12.79396278977898 -1.95875694049405  0.42604675557556
 6 -11.68639392829283 -0.40197767606761 -1.24775026492649
 6  11.06939026962696  0.94607625012501  1.26169644934493
 6 -11.00444191739174  0.68939067786779  2.53113016371637
 6 -13.05059122152215  1.06448209510951  1.12960403720372
 6  12.43053023352335  1.61922134863486  0.98518590479048
 6 -12.39603058895890 -1.48042591039104 -0.95286805550555
 6  13.51561318221822  0.59887756035604  0.52479979887989
 6  10.72173164746475  0.00753134293429  0.08399198429843
 6 -9.60331909580958 -0.07737058525853  0.20833084068407
 6  13.04934291189119  0.00118289888989 -0.88215380168017
 6  11.62852594139414 -0.44936998229823 -0.94816987578758
 6  10.00754764036404  2.14499381138114  1.29612232563256
 6  11.10277110961096  0.19524870027003  2.66260682198220
 6 -11.33738823632363  0.14663630513051 -2.57526978517852
 6 -8.42916901720172  0.77670265266527 -0.11490511301130
 6  9.30331526082608 -0.43282105790579  0.07088717251725
 6  11.21516146164616 -1.20438340514051 -2.19907951265127
 6 -7.08943026592659  0.34357159895990 -0.13911600090009
 6  8.88457491389139 -1.71328112561256 -0.07670281128113
 6 -6.74955637713771 -1.01342009890989  0.30097298589859
 6  7.42908139563956 -2.18426129812981 -0.19747080938094
 6 -6.17276705270527  1.38051162566257 -0.30811266786679
 6  7.31783497769777 -3.69514323652365 -0.12784256605661
 6  6.35518278727873 -1.31866215491549 -0.42822516491649
 6 -4.80972494619462  1.30365390459046 -0.36850776417642
 6  5.05514636053605 -1.63145098799880 -0.38262604280428
 6 -3.99245061746175  2.30385341154115 -0.79346053505351
 6 -2.58434887298730  2.43492144974497 -0.81358410621062
 6  4.08759272477248 -0.70758126422642 -0.41651116751675
 6  2.66909395799580 -0.90412488398840 -0.30683563616362
 6 -1.99524807500750  3.72448703130313 -1.26234538193819
 6 -1.69745683118312  1.31844458885889 -0.38470448684868
 6  1.81377992299230  0.19882144364436 -0.44416297819782
 6  2.15058837993799 -2.30061284858486 -0.13289092119212
 6 -0.39288154705471  1.42114343564356 -0.48353171297130
 6  0.49157398819882  0.23037470527053 -0.23685694649465
 1 -10.93974071557156  1.51863364866487 -0.24293613881388
 1 -12.81281475457546 -1.45402541624162  2.28496639133913
 1 -11.22989065866587 -1.83416261126113  1.59850313291329
 1 -12.44543817741774 -2.97437654495449  0.45734059615962
 1 -10.20267566886689 -0.02004032843284  2.95677430133013
 1 -10.42759292589259  1.63961703870387  2.20467518941894
 1 -11.59935752805280  0.94521794079408  3.36886106390639
 1 -13.59946114791479  0.87800380268027  0.12971944224422
 1 -13.93587935853586  0.96762837023702  1.83159716171617
 1 -12.56771545694569  2.02171579337934  1.31485196849685
 1  12.53430079677968  2.23448839833983  0.25077292049205
 1  12.64355878297830  2.20041408030803  1.79359696089609
 1 -12.84230770937094 -2.09938673517352 -1.89496368706871
 1  13.83076266106611 -0.11311105690569  1.29952028792879
 1 -9.38817118281828 -1.11689654865487  0.51286884688469
 1  13.60369551365137 -0.78904194349435 -1.25146030203020
 1  13.37873429092909  0.92600117801780 -1.61877180098010
 1  9.09607630523052  1.88301835363536  1.80777602500250
 1  9.79186104770477  2.48134073647365  0.32079899539954
 1  10.35231890519052  2.82174714641464  2.00156630763076
 1  11.95646848814882 -0.60658790739074  2.78161458285829
 1  10.19114408500850 -0.64758729972997  2.77739086718672
 1  11.13998489758976  0.99364716151615  3.49168411141114
 1 -10.28429092709271  0.13572348304830 -2.91003839953995
 1 -11.78951800810081  1.12735873437344 -2.42068913421342
 1 -11.96499434453445 -0.51970072137214 -3.29845760336034
 1 -14.56712998629863 -2.30165911851185 -0.27085528932893
 1  8.53118218621862  0.31898212341234  0.34550719691969
 1 -8.59127429632963  1.94275592839284 -0.39840516091609
 1  11.50464619911991 -2.15848734473447 -2.12848570007001
 1  10.10416328272827 -1.11388749044904 -2.39838577257726
 1  11.85316461016102 -0.82307539763976 -3.02635858395840
 1  14.96140532083208  1.92636073587359  1.11108907780778
 1  9.57765754205421 -2.56915999769977 -0.18577502000200
 1 -5.73864832583258 -1.12728987968797  0.04630202700270
 1 -7.08868776687669 -1.08878085128513  1.50905315771577
 1 -7.37587382258226 -2.00100854905491 -0.12871108590859
 1 -6.79402168866887  2.19074786988699 -0.78254145584558
 1  6.69801335033503 -4.09263268586859  0.81590128582858
 1  6.65127247244724 -3.92736792459246 -0.87046663786379
 1  8.23276317371737 -4.38494467906791 -0.03583661636164
 1  6.58976740364036 -0.34055129452945 -0.51320344224422
 1 -4.29717194879488  0.43994365956596 -0.15229128672867
 1  4.59233283678368 -2.70475972897290 -0.81977963876388
 1 -4.56035208090809  3.15702368416842 -0.98623827932793
 1  4.14543461966197  0.29347668656866 -0.31124034143414
 1 -1.27515727392739  3.46001744844485 -2.29025729762976
 1 -1.24137697609761  4.16526368366837 -0.41323328312831
 1 -2.84188367646765  4.47007942344234 -1.44557285098510
 1 -2.29339822022202  0.51586821232123 -0.30428515851585
 1  2.31929097119712  1.10943493269327 -0.54150116521652
 1  1.99248777647765 -2.57932433483348  0.91406978547855
 1  1.05461053235324 -2.53945323642364 -0.64681596669667
 1  3.20313306270627 -3.07172495969597 -0.67092133513351
 1  0.39678556345635  2.09561940164016 -0.85028201970197
 1 -0.05010790679068 -0.60723089288929  0.00797014201420

