%nproc=4
%Mem=4GB
# td=(NStates=1) CAM-B3LYP/6-31G(d,p) 

TD

0 1
 8 -14.06655253045304 -2.11022940464046  0.21211146644664
 8  14.83843568036804  0.80927851445144 -0.16905630973097
 6 -11.76758961856186 -0.11351527662766  1.28599341934193
 6 -10.90633759625963  0.15400817181718  0.02984669746975
 6 -11.98581406200620 -1.57986247064706  1.36501434273427
 6 -12.70903429692969 -2.15111617641764  0.08766291719172
 6 -11.38741403030303 -0.49836731503150 -1.23241873177318
 6  11.19206253685369  0.88042968546855  1.07333761346135
 6 -11.06682815601560  0.41166290509051  2.56727377807781
 6 -13.07713387578758  0.60619626652665  1.21650272707271
 6  12.56294347484748  1.45015444194419  0.61819920612061
 6 -12.14505549144915 -1.57545541334133 -1.23030579927993
 6  13.52976459735974  0.32998067066707  0.21697901680168
 6  10.70920039433943 -0.07618702890289  0.00697428252825
 6 -9.43247201110111 -0.10637348554855  0.18090809840984
 6  12.88524650225022 -0.34892211161116 -0.92856844314431
 6  11.42931602040204 -0.66145119041904 -0.92980803960396
 6  10.18059494509451  2.05126443844384  1.09465217861786
 6  11.18616944944494  0.28635781118112  2.46480704200420
 6 -10.95361985948595  0.10079172067207 -2.52260451865187
 6 -8.45208130843084  0.87506248864886  0.04632100960096
 6  9.22409733903390 -0.35491326712671  0.10720080388039
 6  11.00742068756876 -1.45422838963896 -2.08964856955696
 6 -7.03118444134414  0.66285352715272 -0.04061615091509
 6  8.71181763816382 -1.67718751625163  0.02465732473247
 6 -6.60751217271727 -0.78175693259326  0.18868175677568
 6  7.36250473797380 -2.10055292729273 -0.03607466976698
 6 -6.17852762876288  1.70759433393339 -0.28230008660866
 6  6.90504369856986 -3.48468219041904  0.35930614881488
 6  6.24424169316932 -1.22701298999900 -0.21062340474047
 6 -4.78354232793279  1.60697423662366 -0.39798071147115
 6  4.93736458235824 -1.42605044794479 -0.02422020222022
 6 -4.06076744914491  2.76416944314431 -0.60940212921292
 6 -2.60634107220722  2.76267422502250 -0.63914666246625
 6  3.91830579607961 -0.54956546264626 -0.27912742914291
 6  2.51875892449245 -0.76485095659566 -0.05471042364236
 6 -1.95985453565357  4.06453103570357 -1.05983513091309
 6 -1.79650673617362  1.58407115151515 -0.42793881028103
 6  1.63568211321132  0.38971053255326 -0.41192975487549
 6  2.00218353945395 -2.05485827312731  0.33183555145515
 6 -0.34129638853885  1.58001932323232 -0.62878623842384
 6  0.35717054785479  0.40432210001000 -0.21913517431743
 1 -11.15704244574457  1.24672645794579 -0.07275912111211
 1 -12.65260873397340 -2.11492150585058  2.06192408710871
 1 -11.18347601720172 -1.99435863086309  1.47362064466447
 1 -12.45336897049705 -3.15014412171217  0.13906876897690
 1 -10.13176857815782  0.01641331693169  2.70263888778878
 1 -10.84063423002300  1.50753383038304  2.35834055595560
 1 -11.70923851615161  0.41754517351735  3.48506268406841
 1 -13.82071327312731  0.44914091639164  0.38226469676968
 1 -13.61647741834184  0.40137174457446  2.03775777777778
 1 -12.96130481588159  1.90171379317932  1.12144262756276
 1  12.38725609230923  2.51084603410341  0.06949479267927
 1  12.83119754685469  1.98069210811081  1.50619822102210
 1 -12.60673415201520 -2.15932272877288 -2.06039022972297
 1  13.51947153195320 -0.30752049784979  1.01383171907191
 1 -8.91961432713271 -0.99570442944294  0.70252781278128
 1  13.44658980308031 -1.13037607690769 -1.27188234423442
 1  13.31033745124513  0.44184276217622 -1.74630455425543
 1  9.26783348094810  1.80018006980698  1.74902014941494
 1  9.91488334993499  2.40305290769077  0.25920283578358
 1  10.86890056335633  2.92195716741674  1.63716986798680
 1  12.15685852715272 -0.34946219481948  2.60391681308131
 1  10.24783975457546 -0.36624916591659  2.77401052915291
 1  11.31186208530853  1.00881867866787  3.25481042404240
 1 -9.84929742774277  0.18298820952095 -2.58227562326233
 1 -11.12938199449945  1.15391138963896 -2.60049711501150
 1 -11.06605445054505 -0.67395614691469 -3.26136389398940
 1 -14.47728100140014 -1.96086503910391 -0.80321852565257
 1  8.51733080108011  0.41885211041104  0.21954460066007
 1 -8.77831300020002  1.81671332413241 -0.28621394179418
 1  11.50048578307831 -2.49037053305331 -2.27943079457946
 1  9.85620848724873 -1.59158526022602 -1.97115304930493
 1  11.30751004470447 -0.92596568666867 -3.06052200030003
 1  15.00340952125212  1.00544864466447  0.81636960586059
 1  9.45371514781478 -2.50162324402440 -0.07725416791679
 1 -5.45881034203420 -0.83495064576458  0.29941733853385
 1 -6.97369626772677 -1.21099307250725  1.04268652105211
 1 -6.78379461466147 -1.37062551075108 -0.62733094789479
 1 -6.50783306980698  2.83047184228423 -0.25172837453745
 1  6.23691724072407 -3.37639106170617  1.21822151785179
 1  6.35468281348135 -3.88577376517652 -0.65076466766677
 1  7.70645054245425 -4.15344152875288  0.80275724302430
 1  6.44061248814881 -0.17611485088509 -0.62532465436544
 1 -4.08849108070807  0.66190585578558 -0.21278733633363
 1  4.68395199869987 -2.38748800180018  0.37181952115212
 1 -4.54267031273127  3.68889687148715 -0.62367202270227
 1  4.21941201740174  0.38035537443744 -0.85117433483348
 1 -1.38786854505451  3.88041948864886 -1.88216648854885
 1 -1.37094993339334  4.39336649394940 -0.26783874367437
 1 -2.75344483258326  4.73077549304930 -1.41102939663966
 1 -2.16033491389139  0.73337996349635 -0.16656138613861
 1  2.07741678377838  1.24414840404040 -0.85450246534654
 1  2.49419794749475 -2.36729313171317  1.27582596109611
 1  0.93381845314531 -1.99758905000500  0.83835255015501
 1  2.18419116851685 -2.84796258345835 -0.43359760276028
 1  0.29414529942994  2.50351019071907 -0.99046603810381
 1 -0.21093398939894 -0.38622879267927  0.18148749374937

