%nproc=4
%Mem=4GB
# td=(NStates=1) CAM-B3LYP/6-31G(d,p) 

TD

0 1
 8 -14.10401627682768 -2.09178756045605  0.60073032833283
 8  14.88019985678568  0.69145673227323  0.36630722662266
 6 -11.79364222382238  0.04619069396940  1.29556437643764
 6 -10.94987194969497  0.30835360636064 -0.06663295049505
 6 -11.95056053665366 -1.45039952435244  1.61031887318732
 6 -12.64388778227823 -2.11008207300730  0.48108225912591
 6 -11.68990427932793 -0.53910138843884 -1.26418190809081
 6  11.15272860346034  0.93361500400040  1.11276155585559
 6 -11.13131460466047  0.74308604740474  2.41820887158716
 6 -13.16135229762976  0.79525517241724  1.07680875767577
 6  12.56667384788479  1.37207663416342  0.83853123932393
 6 -12.31505249114912 -1.64466233403340 -0.94699746844684
 6  13.48676029692969  0.29497717031703  0.47565488438844
 6  10.65973544784478 -0.10259967016702  0.06434001910191
 6 -9.53392215611561 -0.11217406560656  0.05537554515452
 6  13.03290126772677 -0.23433065246525 -0.85297088338834
 6  11.53269635843584 -0.54392943824382 -0.82805786458646
 6  10.33202008760876  2.28429774177418  1.02141485488549
 6  10.98539937243724  0.26667584298430  2.47806836813681
 6 -11.37081157865787 -0.16672503100310 -2.64418667686769
 6 -8.62128822912291  0.78520350275027 -0.14022764526453
 6  9.23622855215522 -0.37516529232923  0.10080016381638
 6  11.18136808230823 -1.41679464626463 -1.97697730243024
 6 -7.08255957885789  0.47618486028603 -0.10172226152615
 6  8.73896035243524 -1.64055385288529 -0.11533667466747
 6 -6.63935535703570 -0.90945970287029  0.24464735333533
 6  7.43892237973797 -2.05676854885489 -0.14460552285229
 6 -6.41110088608861  1.63169674417442 -0.23632548914891
 6  7.12376557075708 -3.60097381958196 -0.15887566936694
 6  6.38509577857786 -1.16683697239724 -0.27393973637364
 6 -4.87124109780978  1.54942848204820 -0.28681959535954
 6  5.03216406230623 -1.38239608250825 -0.23327110731073
 6 -4.01494286668667  2.60404343054305 -0.62990417941794
 6 -2.56518695679568  2.67371532913291 -0.71463421122112
 6  3.98865283078308 -0.46009651575157 -0.45583509990999
 6  2.64778182678268 -0.71212568406841 -0.32939789238924
 6 -1.92325087528753  4.00210479307931 -0.79491863926393
 6 -1.76537362286229  1.54208695309531 -0.64238025442544
 6  1.72892143714371  0.36977853935394 -0.37173573547355
 6  2.27383070417042 -1.98689147644764 -0.02617024912491
 6 -0.40097235613561  1.52424374567457 -0.61502486228623
 6  0.38199303010301  0.31130279807981 -0.47132039283928
 1 -11.07921466296630  1.42724450975098 -0.03210505570557
 1 -12.58680215331533 -1.53394340804080  2.50865876057606
 1 -11.07824549414942 -1.91356055105511  1.81783506610661
 1 -12.36209984358436 -3.16797590489049  0.37601246334633
 1 -10.04902030333033  0.46852852845285  2.55345396929693
 1 -10.86441660826083  1.75840891789179  2.17970269216922
 1 -11.58388598089809  0.54825824482448  3.34790896869687
 1 -13.62390359215922  0.52543854615462  0.10056652695270
 1 -14.04376014661466  0.57960956835684  1.85169917191719
 1 -12.94903358875887  1.83828745054505  1.21928241154115
 1  12.50806817351735  2.01501645114511 -0.04030618741874
 1  13.03222764986499  1.80297433633363  1.76749435063506
 1 -12.83457693629363 -2.16969376587659 -1.81190538123812
 1  13.52831241604161 -0.58916866266627  1.18727906380638
 1 -9.49028139383938 -1.11078593759376  0.16871443144314
 1  13.57881302540254 -1.11207424672467 -1.11985714171417
 1  13.14789120662066  0.63467204510451 -1.57847777157716
 1  9.32092879047905  1.89355940774077  1.21465671307131
 1  10.38764062566257  2.82451505390539  0.03180009550955
 1  10.62963663696370  2.90326529822982  1.84603075407541
 1  11.82866570787079 -0.46086333493349  2.57530395179518
 1  9.97832280288029 -0.22349489048905  2.66647977607761
 1  11.33320421952195  0.96309410621062  3.33695863886389
 1 -10.28782128012801  0.17478738943894 -2.72444984068407
 1 -11.72172122842284  0.86660265876588 -2.63058012331233
 1 -11.99727757285729 -0.97611636293629 -3.28859661726173
 1 -14.34475774907491 -2.13726267886789 -0.42907111091109
 1  8.57592666066606  0.31068129332933  0.32933557975798
 1 -8.83930909980998  1.77007866066607 -0.38856417681768
 1  11.69034476897690 -2.55542703870387 -1.94761761326133
 1  10.04791765816582 -1.56029213091309 -2.07636357035704
 1  11.61514080778078 -1.02932602270227 -2.97094304240424
 1  15.38775795609561  0.73825192499250  1.30313828272827
 1  9.51917169346935 -2.37034011571157 -0.51221766426643
 1 -5.54933939493949 -0.87069422012201 -0.11904450765077
 1 -6.72047094519452 -1.30854282748275  1.32861511391139
 1 -7.20231646684668 -1.73631207940794 -0.48985720052005
 1 -6.82394468096810  2.59025782088209 -0.56012921462146
 1  6.86853040204020 -3.79094251685168  1.00822051775178
 1  6.28254559975998 -4.16033122092209 -0.67560715191519
 1  8.27108700610061 -4.02995918051805 -0.20186321902190
 1  6.85808423532353 -0.14461170057006 -0.50574269616962
 1 -4.25788802040204  0.64038370357036 -0.20452651025102
 1  4.77331093459346 -2.51749100210021 -0.07160482128213
 1 -4.40493653935394  3.50650863266327 -0.88757841334133
 1  4.34111418761876  0.61917925682568 -0.88003722112211
 1 -1.12698245644564  3.98804025072507 -1.68838711061106
 1 -1.21461429982998  4.26953411071107 -0.15836779657966
 1 -2.85506499459946  4.83938635413541 -0.98982727642764
 1 -2.37291617201720  0.65458208370837 -0.62845757575758
 1  2.04167320942094  1.44300829002900 -0.32633964906491
 1  2.54177270497050 -2.22834923732373  1.03547192569257
 1  1.15643071437144 -2.32321161226123 -0.17300858595860
 1  2.75240799019902 -2.85226301350135 -0.46766100910091
 1  0.34110999589959  2.43700354005401 -0.75116210771077
 1 -0.35550844684468 -0.59543971377138 -0.28465912091209

