%nproc=4
%Mem=4GB
# td=(NStates=1) CAM-B3LYP/6-31G(d,p) 

TD

0 1
 8 -14.20483635883588 -1.99481786348635  0.63479373467347
 8  14.81018285508551  0.96858444504450  0.28126872277228
 6 -11.65693855345535 -0.03181710681068  1.32940776077608
 6 -10.98375533803380  0.30622339333933  0.05699941274127
 6 -12.00130561116112 -1.58063254765477  1.49748759005901
 6 -12.76229962346235 -2.17305837063706  0.33431758265827
 6 -11.58623391229123 -0.46388386668667 -1.16994248414841
 6  11.09544287488749  0.88629027152715  1.02844312401240
 6 -10.86752822602260  0.54974671347135  2.51852890359036
 6 -13.06395255765577  0.73810945784578  1.31173225002500
 6  12.47898507900790  1.48165759225923  0.71655904210421
 6 -12.47896888278828 -1.43453132093209 -1.07279004770477
 6  13.50226184708471  0.43967163976398  0.43376069496950
 6  10.73003247754776 -0.01418082828283 -0.03290970587059
 6 -9.54524328822882 -0.06545939413941 -0.05180517291729
 6  13.09042702030203 -0.26716393579358 -0.81717730403040
 6  11.55438852765277 -0.62675772107211 -0.91818687748775
 6  10.21588847444744  2.19794910691069  1.07682039543954
 6  11.02557338983898  0.22940211561156  2.44771533283328
 6 -11.35354985248525  0.22667430893089 -2.56861912011201
 6 -8.53632973327333  0.83790877327733 -0.17471109360936
 6  9.28489341864186 -0.44819259505951  0.00928101190119
 6  11.17572751825182 -1.41764473127313 -2.17736734143414
 6 -7.12385370827083  0.53777101890189 -0.32387447674767
 6  8.79338579497950 -1.66325612311231 -0.06667180818082
 6 -6.70670209170917 -0.80145890279028  0.02329521812181
 6  7.41511999949995 -2.11284415641564 -0.06318738103810
 6 -6.27097687368737  1.53130670517052 -0.58470032663266
 6  7.18875206940694 -3.58322204440444  0.32111232943294
 6  6.47392466146615 -1.15776606530653 -0.25694803720372
 6 -4.85193916761676  1.39936347554755 -0.51800271367137
 6  5.00352119801980 -1.44788263116312 -0.14559233943394
 6 -4.07595896829683  2.55556858305831 -0.63878506750675
 6 -2.61132157025703  2.55151310891089 -0.63524627242724
 6  4.01938590409041 -0.44950545664566 -0.31178069446945
 6  2.61708875747575 -0.74202867436744 -0.24443939653965
 6 -1.95677422762276  3.97213179577958 -0.88324747214721
 6 -1.75502258775878  1.53332607700770 -0.36956297269727
 6  1.74919346434643  0.29858141964196 -0.41376993889389
 6  2.18757207830783 -2.20810359765977 -0.03482111421142
 6 -0.39323158205821  1.45986730803080 -0.44852821262126
 6  0.34220905170517  0.30555222302230 -0.19217247804780
 1 -11.04569131063106  1.47640942624262 -0.31598344354435
 1 -12.51971544464446 -1.71993200690069  2.50571846654665
 1 -10.90911858145815 -1.92742193719372  1.37681096369637
 1 -12.39327296089609 -2.97711681898190  0.05713057515752
 1 -10.03005840714071 -0.33116144054405  2.66511513541354
 1 -10.37841800840084  1.62821589858986  2.41435615751575
 1 -11.60409800210021  0.83845726472647  3.53254743254325
 1 -13.59375057685769  0.57592359465947  0.24275074537454
 1 -13.59966573717372  0.41814342174217  2.26016001800180
 1 -12.82384106950695  1.74317793959396  1.43415389868987
 1  12.56686405310531  2.09370431993199 -0.21673383018302
 1  12.78807323442344  2.08647268616862  1.64124172537254
 1 -13.06095957455746 -1.90961775827583 -1.81119531023102
 1  13.46454603940394 -0.35407515331533  1.22097243314331
 1 -9.33598596429643 -1.10495535453545  0.03916147614762
 1  13.80600574467447 -1.11963500280028 -0.95501065706571
 1  13.33368978647865  0.58225680358036 -1.50699062286229
 1  9.24195089268927  1.88459851165116  1.43675892329233
 1  10.34414627622762  2.74625722812281  0.05405232073207
 1  10.64318799209921  2.84135910761076  1.68520467146715
 1  11.87200004130413 -0.56198344694469  2.61503792519252
 1  9.92735770637064 -0.07810035103510  2.71248437653765
 1  11.38747964706470  1.03950174697470  3.36788173117312
 1 -10.27584008200820  0.53099301000100 -2.87957535323532
 1 -11.80012906920692  1.27681367986799 -2.80315738103810
 1 -11.70074791989199 -0.56565531683168 -3.36758451605160
 1 -14.74248752205220 -1.82165111771177 -0.38385658945895
 1  8.69146821482148  0.43772399759976  0.19828247444745
 1 -8.78560372927293  1.80316196899690 -0.66302162256226
 1  11.18052378687869 -2.44578607460746 -2.14069692119212
 1  10.15615848224822 -1.39494559625963 -2.47157309130913
 1  11.66230552425243 -1.00981407150715 -3.01285723382338
 1  14.98571775207521  1.38189628942894  1.09960792969297
 1  9.49572934923492 -2.51456453815382 -0.14395083758376
 1 -5.57601206220622 -0.84054120482048  0.04440183698370
 1 -7.18200709880988 -1.37415938913891  1.10074232663266
 1 -7.10163639883988 -1.62252070027003 -0.70691890669067
 1 -6.66449873637364  2.48376717181718 -1.09113231493149
 1  7.07738128712871 -3.62697612021202  1.55407510321032
 1  6.33363070827083 -4.09455464326433 -0.19788938013801
 1  7.96862676007601 -4.26038222282228  0.24594156145615
 1  6.76867529442944 -0.14767200660066 -0.36187830973097
 1 -4.49844207580758  0.41781144634463 -0.19044510211021
 1  4.52651625512551 -2.29255850885088  0.20512285148515
 1 -4.44307035273527  3.53368134993499 -0.79476913241324
 1  4.40189026522652  0.45660299919992 -0.77302652005201
 1 -1.36534629282928  4.01645309200920 -1.87493576547655
 1 -1.17662050045004  4.18587574487449 -0.07749970977098
 1 -2.83121260936094  4.67039945544554 -0.87694598829883
 1 -2.26864574497450  0.60216684218422 -0.03230796079608
 1  2.18778782088209  1.27573156235624 -0.64698171327133
 1  2.35248377607761 -2.39362576497650  1.21390976947695
 1  1.09195426672667 -2.50390968206821 -0.35493677877788
 1  2.93249599899990 -3.00068785598560 -0.49349359235924
 1  0.39738562346235  2.20346018571857 -0.84183117461746
 1 -0.25502839883988 -0.51289145894589  0.20162950795080

