%nproc=4
%Mem=4GB
# td=(NStates=1) CAM-B3LYP/6-31G(d,p) 

TD

0 1
 8 -14.04259013421342 -2.25407378907891  0.46422667796780
 8  14.79445128192819  0.84158174477448  0.09260985688569
 6 -11.74532739233923 -0.01117504260426  1.35154997499750
 6 -10.99772673517352  0.34946771777178  0.01714542734273
 6 -11.87331281188119 -1.57855233963396  1.37178501980198
 6 -12.65879927342734 -2.16895796059606  0.23833798469847
 6 -11.57559284818482 -0.34141161946195 -1.14243973387339
 6  11.07908123872387  0.95370701320132  1.05269554925493
 6 -10.96120759395940  0.50229196799680  2.59259631033103
 6 -13.05270143254325  0.58662430933093  1.31612268906891
 6  12.54178135863586  1.48351777827783  0.76322370857086
 6 -12.32240322622262 -1.53276114391439 -1.05342811151115
 6  13.51220284118412  0.34422209480948  0.35225254415442
 6  10.72036151045105 -0.06071548174817  0.01026461156116
 6 -9.54028279217922  0.01712886468647  0.08676868446845
 6  12.96422440004000 -0.36657387678768 -0.86311189748975
 6  11.50351344014401 -0.59632467776778 -0.94300935973597
 6  10.16546343194319  2.16549586158616  1.02306501990199
 6  11.00066089858986  0.32640181558156  2.55042560386039
 6 -11.18087258475848  0.27627926942694 -2.52222448064806
 6 -8.51483758405841  0.84846982938294 -0.19226284878488
 6  9.26013094239424 -0.46093386918692  0.14667475127513
 6  11.06603654915491 -1.58012097889789 -1.99694929962996
 6 -7.17915923882388  0.56923416521652 -0.09441153045305
 6  8.77488394479448 -1.73911370887089 -0.13061820282028
 6 -6.71710313181318 -0.92218097499750  0.12856574517452
 6  7.43700218771877 -2.09613248524852  0.08965790349035
 6 -6.23870364636464  1.55416899139914 -0.42129398599860
 6  7.07547074127413 -3.57172089428943  0.21689190739074
 6  6.42237950695070 -1.16695698439844 -0.14886722912291
 6 -4.78910288398840  1.50058359755976 -0.39092000540054
 6  5.01974282018202 -1.46193403630363 -0.07060484068407
 6 -4.02558393079308  2.60906393259326 -0.72439362836284
 6 -2.60093053115312  2.77589554715472 -0.78134088188819
 6  4.03139710521052 -0.45517602370237 -0.33035255165517
 6  2.58573562216222 -0.70221469296930 -0.20376532913291
 6 -1.99044759495950  4.02563714631463 -0.97857700510051
 6 -1.73661074657466  1.63779652405240 -0.55484150055005
 6  1.76783532853285  0.38127968946895 -0.47287584948495
 6  2.02758607970797 -2.14146693399340  0.04882725062506
 6 -0.36507876677668  1.62229355065507 -0.58883224302430
 6  0.37948277907791  0.42301396919692 -0.39053231403140
 1 -11.09202594409441  1.47652943824382 -0.12818466366637
 1 -12.52956642974297 -1.88410842454245  2.12680057475748
 1 -10.84527219681968 -2.05006420142014  1.51903518611861
 1 -12.57272090569057 -3.19586869416942  0.19959482158216
 1 -10.03118852015202 -0.28309663406341  2.63745236913691
 1 -10.76740690729073  1.43243632063206  2.24743946584658
 1 -11.61182877517752  0.47228064706471  3.40143432123212
 1 -13.63372457425742  0.03036903920392  0.62966943724372
 1 -13.54242001260126  0.31454306170617  2.42270627262726
 1 -13.17205589098910  1.55793941574157  1.21876235953595
 1  12.22525989268927  2.35687063656366 -0.02570472727273
 1  12.78574300140014  1.87399143804380  1.76061366256626
 1 -12.71718519711971 -2.10747754425442 -1.95379957065707
 1  13.45854543934394 -0.37811755755576  1.13875421132113
 1 -9.28876124182418 -1.04292915191519  0.32232979297930
 1  13.39885502960296 -1.23123616291629 -1.15750090609061
 1  13.37755417291729  0.21557013491349 -1.78093801760176
 1  9.17835453305331  2.04309436123612  1.42705795319532
 1  9.93516537813781  2.63028563096310 -0.01959504400440
 1  10.75240891419142  2.98345331703170  1.65581173217322
 1  11.56811965326533 -0.65657290589059  2.56417283868387
 1  9.88343331393139  0.18065552455246  2.80330345844584
 1  11.79275017411741  0.96959475627563  3.33957890089009
 1 -10.13143564156416  0.28829874057406 -2.68278567426743
 1 -11.53682273857386  1.40895689418942 -2.28441550685069
 1 -11.77302514761476 -0.21570032133213 -3.45357311491149
 1 -14.34406768006801 -2.86774572717272 -0.22819102290229
 1  8.52208127612761  0.27052727792779  0.64109675587559
 1 -8.65769093799380  2.00906255905591 -0.11313663406341
 1  11.60590632513251 -2.68669016501650 -1.57450030153015
 1  10.01805467186719 -1.51390749244925 -2.22874880888089
 1  11.60936022972297 -1.48899198929893 -3.08668461656166
 1  15.16994617491749  1.01114921472147  0.99657762666267
 1  9.48251802810281 -2.49834291599160 -0.13864030653065
 1 -5.64094855585559 -1.26244339503950 -0.01323392659266
 1 -7.14103300140014 -1.36855882908291  1.04823707610761
 1 -7.03433966916692 -1.54627307550755 -0.78928714351435
 1 -6.68569085558556  2.61276007110711 -0.62540574227423
 1  6.38883243224322 -3.68502192479248  1.08241793749375
 1  6.41198854405441 -3.90125531333133 -0.74935452665267
 1  8.02901279867987 -4.01474765936594  0.03969093639364
 1  6.74477290419042  0.00747350795079 -0.12665478737874
 1 -4.40450268186819  0.44134379957996 -0.01701775937594
 1  4.75894949844985 -2.41449070207021 -0.13080074087409
 1 -4.62328837453745  3.56099408120812 -0.81566122162216
 1  4.53242331853185  0.60830816971697 -0.53020223762376
 1 -1.40274003220322  4.16600804750475 -1.70048832073207
 1 -1.47323016141614  4.58877603490349 -0.20516247604760
 1 -2.78177766586659  4.78159057455746 -0.94093238693869
 1 -2.11727060746075  0.49895652115212 -0.57113184318432
 1  2.32180122222222  1.33407739693969 -0.88653566866687
 1  2.25409393709371 -2.25256165856586  1.06724510301030
 1  1.01418648994899 -2.32860215131513 -0.20689197429743
 1  2.69824257365737 -2.79548733593359 -0.52493673667367
 1  0.29262514741474  2.60255009470947 -0.71381837333733
 1 -0.15468836483648 -0.56379654945495 -0.07690834583458

