%nproc=4
%Mem=4GB
# td=(NStates=1) CAM-B3LYP/6-31G(d,p) 

TD

0 1
 8 -14.05647152235223 -2.14965334703470  0.54788504380438
 8  14.79083091989199  0.97507509410941  0.01776237213721
 6 -11.70748360796080 -0.01443536863686  1.36758157815782
 6 -10.88506546904691  0.36241901290129 -0.00420670787079
 6 -11.89674515511551 -1.46238072247225  1.48225606690669
 6 -12.63591698519852 -2.18049911471147  0.42064621552155
 6 -11.58617390629063 -0.49106658495850 -1.16293178307831
 6  11.04323765436544  0.90831247374737  1.08598887858786
 6 -10.85553702690269  0.58901063986399  2.44675172587259
 6 -13.06651281368137  0.67711335823582  1.26311738853885
 6  12.45185236573657  1.54439386588659  0.70060744694469
 6 -12.30055104100410 -1.49895776357636 -1.04924769346935
 6  13.48274989588959  0.46008368096810  0.38533585248525
 6  10.74587406170617 -0.12706211641164  0.02876646174617
 6 -9.48744750865086 -0.04449729792979 -0.03302329472947
 6  12.96950492809281 -0.17291451085109 -0.92866845314531
 6  11.55159824862486 -0.58732377767777 -0.90010506930693
 6  10.05624250985099  2.08117742974297  1.18917163056306
 6  11.00098093059306  0.27210638603860  2.57724828612861
 6 -11.35221971947195  0.07925956745675 -2.53405566376638
 6 -8.51213731403140  0.84379936233623 -0.33645726822682
 6  9.27789271857186 -0.49810758655866  0.09581966576658
 6  11.17411735723572 -1.54983795059506 -2.12670227492749
 6 -7.11600292319232  0.60971821362136 -0.34466655595560
 6  8.77328378477848 -1.76340613811381 -0.01489663066307
 6 -6.62336375787579 -0.87283604050405  0.03236612521252
 6  7.38552704020402 -2.11461433343334 -0.03097415971597
 6 -6.30838061406141  1.60635420992099 -0.50010186678668
 6  7.00607380158016 -3.50197391959196  0.14176439463946
 6  6.36003327232723 -1.18348863756376 -0.11577391979198
 6 -4.80346432013201  1.52920645984598 -0.46379729312931
 6  4.96086693259326 -1.59360720362036 -0.14474225442544
 6 -3.98355972837284  2.74316734293429 -0.63055424442444
 6 -2.60819125722572  2.76456441404140 -0.72038478627863
 6  3.96076004150415 -0.58623913001300 -0.27983750015001
 6  2.54581162976298 -0.75247971947195 -0.10571552415242
 6 -1.84806335653565  4.06747132973297 -0.81633078047805
 6 -1.70854794029403  1.58529127352735 -0.41707772417242
 6  1.73510205520552  0.33684524602460 -0.28852741464146
 6  2.10381370247025 -2.22246503380338 -0.08913654575458
 6 -0.34505676457646  1.47646896819682 -0.51527488728873
 6  0.30504533533353  0.35128679647965 -0.23817707850785
 1 -11.11419816131613  1.32347413271327 -0.44264610981098
 1 -12.33340681378138 -1.42134214791479  2.43940183488349
 1 -10.97410508010801 -1.83355255025503  1.61122440504050
 1 -12.44824845844584 -3.31461056835683  0.16125098719872
 1 -9.72739814111411  0.36518819441944  2.58512713661366
 1 -10.84800496709671  1.65694877187719  2.36981170307031
 1 -11.29257684998500  0.29185260426043  3.54423860166017
 1 -13.72198340014001  0.26951295359536  0.37071354165417
 1 -13.72948871947195  0.60331193859386  2.10539454145415
 1 -12.82881156655665  1.77239086088609  1.32820330363036
 1  12.31323869056906  2.24378932843284 -0.10113227002700
 1  12.67686211331133  2.32755679457946  1.63412101330133
 1 -12.77802128072807 -2.08257505400540 -1.81381557225723
 1  13.49311889668967 -0.37817756355636  1.14395473137314
 1 -9.46903926962696 -1.08756361536154  0.37050461046105
 1  13.46818196229623 -1.04870791009101 -1.05269042504250
 1  13.02956937443744  0.51011958985899 -1.76903682748275
 1  9.17955465306531  1.80899095089509  1.59784503190319
 1  9.71369323092309  2.39940254265427  0.25179209470947
 1  10.55675934923492  2.91947691939194  1.66968311931193
 1  11.63561640294030 -0.54194144274427  2.61931835323532
 1  10.04773974457446 -0.11263380438044  2.92041516961696
 1  11.41498239733973  1.05164296109611  3.31738668166817
 1 -10.26035853385339  0.29127903860386 -2.91520891659166
 1 -12.03001205750575  0.92416841534153 -2.75143220852085
 1 -11.57671551665167 -0.69275802710271 -3.23901165876588
 1 -14.50750402370237 -2.47969692229223 -0.28768697249725
 1  8.59290835883588  0.20994121932193  0.63990663686369
 1 -8.95394056295630  1.83904555735574 -0.38834415481548
 1  11.50485622012201 -2.41367286328633 -1.85494834633463
 1  10.29949281568157 -1.64790089178918 -2.30336627062706
 1  11.76291558525853 -1.16570966106611 -3.09752570067007
 1  15.16274545484548  1.47566566636664  0.74418238713871
 1  9.30717049334934 -2.71456453815382 -0.26885332783278
 1 -5.53137759875988 -0.79593674437444  0.14943234003400
 1 -7.11204010211021 -1.10545251845185  1.03779603200320
 1 -6.98186442164216 -1.64354280248025 -0.79609782458246
 1 -6.72529481598160  2.57229602470247 -0.68559176087609
 1  6.26177972697270 -3.82901632423242  1.05243493919392
 1  6.71496884208421 -3.88674386218622 -0.90151974317432
 1  7.97460735813581 -4.10035622022202  0.57818478577858
 1  6.77541596849685 -0.23408064746475 -0.44473659555956
 1 -4.35321755335534  0.47376704190419 -0.48886494409441
 1  4.71713531703170 -2.49054830783078  0.25030736993699
 1 -4.27042308800880  3.67895587738774 -0.69944960046005
 1  4.23188326452645  0.45145248414842 -0.70042926032603
 1 -0.85033479167917  3.85836728342834 -1.36878515041504
 1 -1.69709254765477  4.53894105140514  0.36337437763776
 1 -2.53273276137614  4.70523293879388 -1.39888818251825
 1 -2.19997887828783  0.73748037353735 -0.42843757375738
 1  2.44499354145415  1.34187817701770 -0.42711972707271
 1  2.14498302600260 -2.53541994439444  0.97156553505351
 1  0.99156422772277 -2.35203449454945 -0.34458574367437
 1  2.97087983738374 -2.88047583478348 -0.69615385838584
 1  0.28079396429643  2.43428326802680 -0.54645163666367
 1 -0.18533142914291 -0.78585875567557 -0.20397105210521

