%nproc=4
%Mem=4GB
# td=(NStates=1) CAM-B3LYP/6-31G(d,p) 

TD

0 1
 8 -13.98186406160616 -2.08450683238324  0.49290954625463
 8  14.78437027382738  0.79366695329533 -0.04690409450945
 6 -11.71935479507951 -0.01966589168917  1.34180900090009
 6 -10.95643260576058  0.38390116111611 -0.02034832203220
 6 -11.84507998859886 -1.50687517191719  1.43080092139214
 6 -12.55180857435744 -2.11113217801780  0.21756590749075
 6 -11.57478276717672 -0.23295077337734 -1.19864535443544
 6  11.17968129872987  0.89853149564957  1.14525480518052
 6 -10.94288576177618  0.53863560236024  2.50119717041704
 6 -13.15211137353735  0.63431907880788  1.28703978077808
 6  12.59164634513451  1.40732015851585  0.70490787698770
 6 -12.31594258015802 -1.34968283608361 -1.13981675037504
 6  13.52525414631463  0.35862353495350  0.24874219311931
 6  10.62469194349435  0.01448203800380  0.04717830293029
 6 -9.50107887178718 -0.00665351355136  0.06453646124612
 6  12.82461043864386 -0.16808402780278 -1.07653323962396
 6  11.43678676747675 -0.40868591389139 -0.96271132993299
 6  10.36243312891289  2.32127143914391  1.20062277567757
 6  11.07638847134713  0.30165934133413  2.48979954125413
 6 -11.25958045554555  0.34726636813681 -2.57541980018002
 6 -8.47640374067407  0.89466444884488 -0.16825044754475
 6  9.21069599889989 -0.36789456525653  0.26982706650665
 6  10.96759670517052 -1.29703267006701 -2.01192079677968
 6 -7.09653097599760  0.45091233303330 -0.21261335063506
 6  8.78568502490249 -1.60236003350335  0.06132099109911
 6 -6.75464688618862 -0.98568732563256  0.05434832343234
 6  7.37943643114311 -2.06687955995600  0.00855979367937
 6 -6.25039481548155  1.58543211771177 -0.35483734033403
 6  7.16024921912191 -3.56616033823382  0.02285250345034
 6  6.24139140814081 -1.24989527822782 -0.11897423982398
 6 -4.84445841954195  1.49216275547555 -0.39881079447945
 6  4.98097894379438 -1.57560540344034 -0.07499527972797
 6 -3.96872824522452  2.52674570077008 -0.77639882888289
 6 -2.56240667876788  2.50915887348735 -0.75606835463546
 6  3.92672663816382 -0.61658216431643 -0.21759127552755
 6  2.56705375397540 -0.85760023152315 -0.08365331793179
 6 -1.91194974517452  3.86779136173617 -1.05360450785078
 6 -1.79393647914791  1.34796754115411 -0.53984000040004
 6  1.72114065906591  0.17354891639164 -0.30407896979698
 6  2.12665598669867 -2.21521430873087  0.41511387928793
 6 -0.39475173407341  1.50614193549355 -0.53652701250125
 6  0.30268509930993  0.38409007680768 -0.37560082088209
 1 -11.16449319081908  1.37798958425843 -0.13207505270527
 1 -12.48649212231223 -1.83885389908991  2.26586448114811
 1 -10.72158982858286 -1.88278747374738  1.59489277187719
 1 -12.25334896849685 -3.21928103540354  0.14884974707471
 1 -9.91947734903490  0.15176685228523  2.21735035893589
 1 -10.98135830243024  1.73654673167317  2.35649037093709
 1 -11.40307790009001 -0.06340292129213  3.38865304310431
 1 -13.45927712951295  0.03688969126913  0.51058752905291
 1 -13.70175594619462  0.41066267366737  2.30882488448845
 1 -13.00471915731573  1.65787940974097  1.11687217051705
 1  12.65176254295429  2.33521847134713 -0.21192334913491
 1  12.96621104820482  2.10063410231023  1.55512311351135
 1 -12.83551703030303 -1.96906370287029 -1.96560075077508
 1  13.39224880968097 -0.55896564236424  1.07904824072407
 1 -9.28522088778878 -1.01359621862186  0.22999055905591
 1  13.34260940504050 -0.94550759005901 -1.58489364536454
 1  13.09960637813781  0.75120369826983 -1.73663358715872
 1  9.27151384898490  2.18057810961096  1.64474972237224
 1  10.05721758335834  2.72040464286429  0.18415533103310
 1  10.73933760706070  3.06738170987099  1.77970412141214
 1  11.75930877217722 -0.71366861546155  2.68474489588959
 1  9.97677264786479  0.03129058805881  2.67237036513651
 1  11.49670056915691  0.99448724552455  3.16495143814381
 1 -10.18019051705171  0.32229213991399 -2.64851224692469
 1 -11.54215327162716  1.38754475297530 -2.60271733703370
 1 -11.83297114221422 -0.08961771307131 -3.41035879347935
 1 -14.20540381368137 -2.39303825642564 -0.30845904970497
 1  8.48756782478248  0.38513873907391  0.45910855705570
 1 -8.62073724262426  2.01721337413741 -0.31435675607561
 1  11.28089382388239 -2.31072256825683 -1.74764761626163
 1  9.79253211961196 -1.42389849154916 -1.89037497149715
 1  11.44880417411741 -0.93285637573757 -2.94592054015402
 1  15.31616079637964  1.05181328112811  0.75983395229523
 1  9.67494727102710 -2.27826090779078 -0.15545198769877
 1 -5.64181864286429 -1.17778492919292 -0.19280188338834
 1 -6.74412331043104 -1.31011298449845  1.19322157455746
 1 -7.40303653885389 -1.76607505570557 -0.60590880568057
 1 -6.63392567906791  2.59605840094009 -0.39114231593159
 1  6.66388993799380 -3.89425284788479  0.92787248294829
 1  6.37555490069007 -3.78320350815081 -0.79664925612561
 1  8.05606550395040 -4.25403158775878 -0.17292032473247
 1  6.52469089598960 -0.21161840124012 -0.43067518941894
 1 -4.31537376897690  0.69464913011301 -0.28213427102710
 1  4.59806340984098 -2.58975822882288 -0.01283894469447
 1 -4.32006805250525  3.46133411521152 -0.83733338883888
 1  4.27718779497950  0.42789012791279 -0.34378359575958
 1 -1.59005876407641  3.78802024872487 -2.09976824872487
 1 -1.10731356975698  3.93834099139914 -0.42129408920892
 1 -2.59663915201520  4.76593900940094 -1.01666996069607
 1 -2.23288216861686  0.42501912741274 -0.26721145114511
 1  2.29260830293029  1.16324031323132 -0.69146616171617
 1  2.64655318301830 -2.36533293569357  1.42977135563556
 1  1.26084115541554 -2.41651094219422  0.71930064496450
 1  2.22493524292429 -3.06607439463946 -0.26708095109511
 1  0.19228511341134  2.55388522822282 -0.40348734023402
 1 -0.14166706270627 -0.48430860066007 -0.23314396939694

