%nproc=4
%Mem=4GB
# td=(NStates=1) CAM-B3LYP/6-31G(d,p) 

TD

0 1
 8 -14.07387326252625 -1.97128551025103  0.53300355565557
 8  14.68208004480448  1.18058564516452  0.05886648254825
 6 -11.85690855045505 -0.05847977307731  1.33345816581658
 6 -10.99874683718372  0.38073084408441  0.02729644244424
 6 -12.03885936653665 -1.49563404780478  1.50899874117412
 6 -12.69222261576158 -2.08560962576258  0.27631178207821
 6 -11.66811210011001 -0.32519999829983 -1.18050354025403
 6  11.11996532713271  0.91264290679068  1.19872015171517
 6 -10.97105857905790  0.40484222302230  2.53838088878888
 6 -12.99481564396440  0.83434908180818  1.37197827462746
 6  12.44409158965897  1.56932635913591  0.95825321152115
 6 -12.35831681758176 -1.41607947574758 -0.96736950565056
 6  13.53689531043104  0.62808048064806  0.39633695259526
 6  10.69667914221422 -0.12043145334533  0.16759034413441
 6 -9.55228399229923 -0.01213406160616  0.19430943854385
 6  12.97257523512351 -0.05799301870187 -0.89815540184018
 6  11.64320740954095 -0.57669271457146 -0.83599865866587
 6  9.98067495309531  2.00170948294829  1.24847756115612
 6  11.04220505300530  0.17301647704770  2.59507006830683
 6 -11.32583708120812  0.17718936043604 -2.49011126932693
 6 -8.51762786308631  0.85491047344734 -0.12155577807781
 6  9.26284121342134 -0.49455723152315  0.11477156095610
 6  11.34883482898290 -1.51260422722272 -1.91762136683668
 6 -7.15217654055406  0.47511475327533 -0.21920400970097
 6  8.73737019341934 -1.73249304680468 -0.20542568356836
 6 -6.61176259775978 -0.87873663056306  0.15283817241724
 6  7.39690817831783 -2.22703557555756 -0.26166722902290
 6 -6.16394617061706  1.49881345584558 -0.52991484808481
 6  7.21154434863486 -3.67672139433943  0.07837805600560
 6  6.32465973497350 -1.28301859055906 -0.35354769716972
 6 -4.75565953965397  1.44720826002600 -0.56573748714871
 6  4.99082992889289 -1.62464030693069 -0.23142092229223
 6 -4.01135250765077  2.61599462566257 -0.70811200020002
 6 -2.56358679677968  2.62386034363436 -0.79899264706471
 6  4.01459542504250 -0.65510601670167 -0.45933544994499
 6  2.62071912051205 -0.75181965346535 -0.23138809140914
 6 -1.94981353155316  3.92871745434543 -1.31537068446845
 6 -1.69040612611261  1.55411815621562 -0.43464948134813
 6  1.81326987198720  0.32242380388039 -0.35222378427843
 6  2.04911823292329 -2.11649443674367  0.05798816671667
 6 -0.33918617751775  1.50832215351535 -0.58810217001700
 6  0.42172700350035  0.39591125892589 -0.36237949874988
 1 -11.15645238673867  1.42069385468547 -0.14390623582358
 1 -12.75029850295029 -1.94343435713571  2.42108000270027
 1 -11.01689935953595 -1.89616881188119  1.50512379497950
 1 -12.43138677227723 -3.24047315461546  0.13338820092009
 1 -10.08070347164717 -0.14723304770477  2.71579020292029
 1 -10.62602276887689  1.49953303030303  2.62102682458246
 1 -11.70315790809081  0.21253467246725  3.56525070287029
 1 -13.64541574337434  0.45269127142714  0.55894236453645
 1 -13.59754552515252  0.55105671307131  2.25098910091009
 1 -12.83508219361936  1.97633125492549  1.36842732603260
 1  12.18863623032303  2.34689963946395  0.16515435863586
 1  12.86888131523152  2.11011505040504  1.77607520872087
 1 -12.57767124572457 -1.92722951945194 -1.95203939463946
 1  13.67584716951695 -0.15478522432243  1.23179351525153
 1 -9.27969033473347 -0.98775363436344  0.13821138113811
 1  13.59761490559056 -0.99912295159516 -1.43635879187919
 1  13.08609502700270  0.76756533443344 -1.63399332313231
 1  9.05351204880488  1.63430348214821  1.56413166056606
 1  9.86150801240124  2.49001160356036  0.37429434493449
 1  10.38806247954795  2.73144811651165  1.88240439143914
 1  11.77038988028803 -0.57807505610561  2.59417583898390
 1  10.06839180978098 -0.28930147114711  2.74688781688169
 1  11.44324522362236  0.79361715851585  3.49712465546555
 1 -10.10386288428843  0.19114902560256 -2.51362875857586
 1 -11.77062611891189  1.19630562906291 -2.37514457975798
 1 -11.73711155625563 -0.47220597189719 -3.23065082268227
 1 -14.61550482378238 -2.27642659525953 -0.14827303110311
 1  8.61359042704270  0.22138236343634  0.37853049924993
 1 -8.71142631153115  1.80662231503150 -0.43654897529753
 1  11.74866060056006 -2.51692318831883 -1.61305415691569
 1  10.26445931233123 -1.38593469516952 -2.33550948494849
 1  12.01026031973197 -1.36189928002800 -2.73836978507851
 1  15.05197437773777  1.60556865666567  0.87511548044804
 1  9.42958273457346 -2.48434151585159 -0.17045348784878
 1 -5.55500996199620 -1.05779292999300  0.26486388318832
 1 -6.95403430153015 -1.09070104330433  1.08614086648665
 1 -7.28437467266727 -1.60803925212521 -0.34084229902990
 1 -6.57073936043604  2.44235303040304 -0.82353555525553
 1  6.80677422642264 -3.83327675027503  1.15323501920192
 1  6.18998634383438 -3.99964515231523 -0.37919751095110
 1  8.00698059545955 -4.30380656525653 -0.16770980368037
 1  6.51478990589059 -0.13832107150715 -0.64463658555856
 1 -4.27643987558756  0.52476214141414 -0.58886494409441
 1  4.68278188168817 -2.69002825582558  0.03710604980498
 1 -4.66260230593059  3.66217419921992 -0.75064471997200
 1  4.32120219641964  0.34160149904990 -0.48195741314131
 1 -1.53169292749275  3.84632607930793 -2.27658593049305
 1 -1.25614845324532  4.27596475377538 -0.79100105990599
 1 -2.66830631873187  4.77127954345435 -1.25702399609961
 1 -2.09997887828783  0.75699232473247 -0.18997372737274
 1  2.56804584668467  1.24766875607561 -0.66793380848085
 1  2.70399892759276 -2.59602600500050  0.91842022052205
 1  0.91230630193019 -2.12690198129813  0.36686540144014
 1  2.11368411781178 -2.81220900810081 -0.74450869386939
 1  0.27914379927993  2.36011585128513 -1.01974896639664
 1 -0.07456035203520 -0.49380955075508 -0.00328098309831

