%nproc=4
%Mem=4GB
# td=(NStates=1) CAM-B3LYP/6-31G(d,p) 

TD

0 1
 8 -14.00403627882788 -2.00490887258726  0.73712396769677
 8  14.67754959175918  0.81068865546555  0.43290388628863
 6 -11.64306716631663  0.00978705360536  1.39923474347435
 6 -10.94598156065607  0.42094486548655  0.04699841264126
 6 -11.81264674527453 -1.44587907230723  1.62609045034503
 6 -12.60245363886389 -2.15482654745475  0.45509966086609
 6 -11.62982827172717 -0.30168764706471 -1.21682717261726
 6  11.08811214181418  0.97238888138814  1.28307858755876
 6 -10.73923539673967  0.44518625742574  2.48819587028703
 6 -13.02999916231623  0.77531317821782  1.44420549734973
 6  12.45852303280328  1.48585801230123  1.01354874107411
 6 -12.23234422032203 -1.53852171997200 -0.82198496719672
 6  13.38145976687669  0.43384105670567  0.49943726262626
 6  10.64192366666667 -0.02457186738674  0.10376396149615
 6 -9.51218998289829 -0.09342219041904  0.00919092669267
 6  12.81642962056205 -0.03909112851285 -0.86803238953895
 6  11.46607969676968 -0.45828087338734 -0.92452751155115
 6  10.08682556815682  2.11580089208921  1.32118483188319
 6  11.01909274177418  0.22884205960596  2.52372293359336
 6 -11.41859635713571  0.17004864636464 -2.48638089628963
 6 -8.56086218651865  0.79698468086809 -0.27248087058706
 6  9.22354728402840 -0.51205898169817  0.17452753655366
 6  11.06585653115311 -1.22504547134713 -2.09304890959096
 6 -7.04217554045405  0.54411165296530 -0.26320841014101
 6  8.82451890829083 -1.79272907040704 -0.19829497049705
 6 -6.67514893639364 -0.91323007990799 -0.11328844024402
 6  7.36466495399540 -2.16496936893689 -0.28071913421342
 6 -6.20846062206221  1.57311088558856 -0.51134299089909
 6  7.19365255945595 -3.70079380158016 -0.21221100290029
 6  6.36305357435744 -1.22986327502750 -0.30976331873187
 6 -4.77468144184418  1.38228176737674 -0.51661257465747
 6  5.01699254515452 -1.55370321322132 -0.26988476867687
 6 -3.98669004140414  2.48233125932593 -0.84714590359036
 6 -2.52182262036204  2.69227718531853 -0.93307605540554
 6  4.00702466796680 -0.58870937703770 -0.24861437783778
 6  2.64521156975698 -0.83068754025403 -0.10070502310231
 6 -1.97247579777978  4.07490207280728 -1.38088723612361
 6 -1.80791787728773  1.53736648104810 -0.75269128552855
 6  1.84129267426743  0.34405596709671 -0.37116567846785
 6  2.02575589668967 -2.09894268156816  0.24732710061006
 6 -0.40798305720572  1.47408873017302 -0.72618597839784
 6  0.45978080888089  0.37972964076408 -0.39634289508951
 1 -10.97360410191019  1.43208499379938 -0.13180502570257
 1 -12.42176564966497 -1.64121413511351  2.56494438913891
 1 -10.89723739333933 -1.98237743274327  1.65433871647165
 1 -12.46063969756976 -3.25429453675368  0.41162602470247
 1 -9.70868626992699 -0.06699502390239  2.41806042994299
 1 -10.58165833243324  1.48874195119512  2.44427914981498
 1 -11.00499809210921  0.26373979297930  3.51575575337534
 1 -13.86313751555156  0.62300830313031  0.65340181048105
 1 -13.46340211081108  0.44951655905591  2.65332933493349
 1 -12.83171185658566  2.05064868666867  1.59661014431443
 1  12.53641100780078  2.32597754725473  0.14260210341034
 1  12.92695712281228  1.77146118501850  1.97445504670467
 1 -12.76982046064607 -2.03930072657266 -1.54975916661666
 1  13.15078466326633 -0.48743848964897  1.20118045394539
 1 -9.34396676237624 -1.10937579657966  0.37144470447045
 1  13.51313645774577 -0.89448248754876 -1.30340549654965
 1  13.16451286878688  0.96931550945095 -1.36784670847085
 1  9.25809250685069  1.98997904970497  1.81921716911691
 1  9.80032189378938  2.36291889428943  0.37930484598460
 1  10.72947662096210  2.90526549824982  1.80701685268527
 1  11.47725056635664 -0.71667891649165  2.61731815321532
 1  9.89517448804880 -0.16462900390039  2.62269539763976
 1  11.24945584468447  0.85114291109111  3.48938388138814
 1 -10.33912641064106  0.32379228992899 -2.71151854755476
 1 -11.99056811311131  0.98143414191419 -2.44659172447245
 1 -11.87616546164616 -0.46472522382238 -3.26358411601160
 1 -14.59690296359636 -2.02069102170217 -0.13988219201920
 1  8.50417948594859  0.23814403960396  0.44512715891589
 1 -8.82938810771077  1.86049770257026 -0.50280560096010
 1  11.36636237073707 -2.31126262226223 -2.05190804230423
 1  9.96201906830683 -1.06695279697970 -2.46659259325933
 1  11.64919421312131 -1.02160525062506 -3.03969991809181
 1  14.92175135543554  1.18745684548455  1.38615658455846
 1  9.54025380168017 -2.39771285298530 -0.58949539203920
 1 -5.58819328032803 -1.14405155585559 -0.13201580478048
 1 -6.95446434453445 -1.51754372757276  0.96781903430343
 1 -7.10169640484048 -1.61080952915291 -0.83686190099010
 1 -6.65347763426343  2.54243303840384 -0.72469567126713
 1  6.91786533553355 -4.00744416701670  0.81200089578958
 1  6.27395474067407 -4.08682387018702 -0.59970956215622
 1  7.97532743014301 -4.32863904850485 -0.56709974267427
 1  6.53451187808781 -0.17257449684969 -0.37504962686269
 1 -4.35437766936694  0.47331699689969 -0.21305736333633
 1  4.67254085758576 -2.62458171117112  0.11478381758176
 1 -4.66678272397240  3.37393537533753 -1.19850950645065
 1  4.43332340854085  0.40646798569857 -0.39035825322532
 1 -1.59116887508751  3.89611105780578 -2.21015928782878
 1 -1.27018985738574  4.61696885418542 -0.61327328712871
 1 -2.93126261436144  4.58077049254925 -1.50412870657066
 1 -2.33519239963996  0.48610523602360 -0.84575930593059
 1  2.35677471957196  1.28701269046905 -0.51544855995600
 1  2.44980350805081 -2.37545394779478  1.13012139063906
 1  0.96986205750575 -2.19532882398240  0.33364207910791
 1  2.19818256765677 -2.98754654185419 -0.54201844484448
 1  0.17598348324832  2.44704454415442 -0.98438543004300
 1 -0.21525442144214 -0.53550372017202 -0.32562321732173

