%nproc=4
%Mem=4GB
# td=(NStates=1) CAM-B3LYP/6-31G(d,p) 

TD

0 1
 8 -13.99922579777978 -2.11611999369937  0.69937019231923
 8  14.79284112091209  1.03742132873287  0.10758135403540
 6 -11.59086194579458  0.12856893179318  1.35482030203020
 6 -10.95698266076608  0.42342511351135 -0.03444973217322
 6 -11.79617509810981 -1.52403688808881  1.46323416471647
 6 -12.66417981148115 -2.12100316511651  0.33600775167517
 6 -11.71044633353335 -0.38812629092909 -1.21847733763376
 6  11.03752708330833  0.87245888838884  1.18827910761076
 6 -10.69921139433943  0.60859259805981  2.52127917861786
 6 -12.99995615801580  0.75686133303330  1.46353743054305
 6  12.45901308180818  1.52262168866887  0.78989637583758
 6 -12.33046403230323 -1.55063293109311 -1.00053282198220
 6  13.43702532343234  0.43849152175218  0.32590990989099
 6  10.61707118141814 -0.09928933913391  0.08792237733773
 6 -9.46341510541054  0.05797294909491 -0.12951294369437
 6  12.97760573817382 -0.05938315771577 -0.92999858615862
 6  11.46467955675567 -0.49774481978198 -0.92490754955496
 6  10.08660554615462  2.14036334833483  1.17196991039104
 6  11.12069290179018  0.29453862926293  2.65079564086409
 6 -11.50011450895090  0.16827846934693 -2.57850010821082
 6 -8.42275837613762  0.95393037543754 -0.36938056055606
 6  9.26071100040004 -0.47159493529353  0.11985206900690
 6  11.08162810831083 -1.29064203100310 -2.22077168186819
 6 -7.07724904780478  0.53335057685769 -0.37201929122912
 6  8.69298575497550 -1.81524132163216 -0.23907904890489
 6 -6.73010443194319 -0.97202595949595 -0.11477858925893
 6  7.38023651115112 -2.15817868986899 -0.06709777207721
 6 -6.16023579957996  1.48197177167717 -0.50421227782778
 6  7.10542373657366 -3.58479220142014  0.24919513771377
 6  6.30541781078108 -1.16346663536354 -0.15872821522152
 6 -4.72270624432443  1.37878141734173 -0.55969688308831
 6  4.98930977687769 -1.59704754765477  0.05189740954095
 6 -3.95710708310831  2.52963598979898 -0.64360554955496
 6 -2.58127856595660  2.65781373897390 -0.72646539433943
 6  3.96938090359036 -0.71642214831483 -0.14316383278328
 6  2.48111516011601 -0.85185965746575 -0.11410636323632
 6 -1.90128867906791  4.07604218681868 -0.90640978837884
 6 -1.74093117861786  1.54950769516952 -0.59012502890289
 6  1.72340088508851  0.23815537703770 -0.26729529142914
 6  2.06504982608261 -2.31858464576458  0.08983135103510
 6 -0.29468172707271  1.47876919821982 -0.48175153495350
 6  0.30444527532753  0.21421308910891 -0.36065932673267
 1 -11.17592433393339  1.47397918321832 -0.24944678987899
 1 -12.43385685878588 -1.95855586928693  2.49739763446345
 1 -10.64141181078108 -1.67031622662266  1.35986926952695
 1 -12.32654628822882 -3.19587869516952  0.13088795089509
 1 -9.67976337763776  0.13608528412841  2.15200382428243
 1 -10.51570173677368  1.59092216921692  2.45187990989099
 1 -11.16514410671067  0.14557797679768  3.63157733553355
 1 -13.67255845764576  0.42712871517152  0.78411488178818
 1 -13.62620839143914  0.80129173657366  2.32849685168517
 1 -13.00939962536254  1.72711633343334  1.37122760606061
 1  12.04229159585959  2.13814876437644 -0.27415957275728
 1  12.89034346144614  2.15365940484048  1.56623422462246
 1 -12.98157163576358 -1.96633342984298 -1.68493268396840
 1  13.43406299109911 -0.16194594039404  1.11296163206321
 1 -9.22142450815081 -0.92487734673467 -0.11832427242724
 1  13.66263140724072 -1.01223426272627 -1.05642079807981
 1  13.08576499399940  0.72406098399840 -1.70487041084108
 1  9.07058375597560  2.33957400920092  1.84445969336934
 1  9.91783364496450  2.45452805520552  0.05563247874787
 1  10.96754042734273  2.88508348004800  1.48653480448045
 1  12.13794663596360 -0.46023327192719  2.53824024542454
 1  10.19884485508551 -0.14090663166317  3.01612474057406
 1  11.40666156525652  1.01812960976098  3.49768471147115
 1 -10.66310880888089  0.70693060376038 -2.65684308000800
 1 -12.34536359265927  1.06971296979698 -2.77636470177018
 1 -11.53894173927393 -0.44176292759276 -3.44737249484949
 1 -14.50445371867187 -2.17460641324132 -0.15810401420142
 1  8.52724179217922  0.23905413061306  0.35365801200120
 1 -8.71420658955896  2.04965661846185 -0.58717403780378
 1  11.43845958045805 -2.28680017601760 -2.37410026152615
 1  10.06750961736174 -1.28398450015002 -2.44218015201520
 1  11.70239953365336 -0.78866195629563 -3.06963291139114
 1  14.94778395869587  1.45704380418042  0.99771774067407
 1  9.40086986328633 -2.62456553825382 -0.59754619711971
 1 -5.68036249724973 -1.19513666436644 -0.25612821602160
 1 -7.16024492259226 -1.27258923212321  0.83113536593659
 1 -7.59467570277028 -1.48964741294129 -0.95934414921492
 1 -6.51919420592059  2.50868966406641 -0.81058426012601
 1  6.77644119311931 -3.92920634323432  1.19365906160616
 1  6.31300864606461 -3.96817200500050 -0.51408099929993
 1  7.99186908430843 -4.24199038363836 -0.05757879057906
 1  6.41504993189319 -0.05955319471947 -0.40841296319632
 1 -4.36489872147215  0.35000466566657 -0.31518757635764
 1  4.65228883238324 -2.64792404540454  0.13517585678568
 1 -4.66212225792579  3.30905888768877 -0.93087274277428
 1  4.27322739893989  0.44731207010701 -0.35145436283628
 1 -0.97325708390839  4.02421386808681 -1.53879215111511
 1 -1.36100893929393  4.25586274357436  0.07926596679668
 1 -2.77012650075007  4.80517293279328 -1.19264755845585
 1 -2.14837371777178  0.55132175767577 -0.57349207920792
 1  2.23653269536954  1.11979596879688 -0.43011002610261
 1  2.57015554325433 -2.88999540194019  1.08745712421242
 1  0.94035910721072 -2.37253654475448  0.16799551445144
 1  2.45901865126513 -2.96214400160016 -0.83701794479448
 1  0.20921680658066  2.37471731143114 -0.67626461796180
 1 -0.12440533653365 -0.76079624942494 -0.16568722372237

