%nproc=4
%Mem=4GB
# td=(NStates=1) CAM-B3LYP/6-31G(d,p) 

TD

0 1
 8 -14.33224910011001 -1.93530191189119  0.52641289658966
 8  14.97882971977198  0.81146873347335  0.14046464236424
 6 -11.85221808140814 -0.06663058815882  1.27091191119112
 6 -10.99640660316032  0.24952772377238 -0.05695198239824
 6 -12.08231371197120 -1.58614309870987  1.41838968026803
 6 -13.00049344284428 -2.10303136793679  0.29323347424742
 6 -11.72548783768377 -0.48270574887489 -1.12403789368937
 6  11.24170750135013  0.86378802130213  1.15111539123912
 6 -11.01802327552755  0.41358309710971  2.48676572727273
 6 -13.18755491789179  0.80609625652565  1.30028110491049
 6  12.78209539003900  1.35230465696570  0.80913830003000
 6 -12.43866485238524 -1.57186505430543 -0.98082085078508
 6  13.71338295919592  0.31644931753175  0.37500481938194
 6  10.82963243754375 -0.04274368456846  0.05077866296630
 6 -9.57791655555556 -0.21689453765377 -0.01408140054005
 6  13.23625160276027 -0.37049426882688 -0.89058464476448
 6  11.75604869366937 -0.63647869316932 -0.86861191999200
 6  10.44363124872487  2.18240755275528  1.24064677807781
 6  11.24875570807081  0.13437261266127  2.48503906520652
 6 -11.40484498199820  0.18637027852785 -2.58687094529453
 6 -8.64501060136014  0.75810079247925 -0.22843646614661
 6  9.36842177147715 -0.44640241604160 -0.08572848904890
 6  11.36682662816282 -1.52708567536754 -2.07467707240724
 6 -7.21370269316932  0.49662690449045 -0.07224931423142
 6  8.81037749414942 -1.63748354585459 -0.09817495849585
 6 -6.70594201570157 -1.01703045994599  0.27259014761476
 6  7.41440992849285 -2.01969484148415 -0.02928399069907
 6 -6.22847262326233  1.47668124262426 -0.27459931653165
 6  7.10421361556156 -3.51165488768877  0.37163738193819
 6  6.35572284128413 -1.15762605130513 -0.27752009440944
 6 -4.87306127982798  1.42675621482148 -0.25011592499250
 6  5.00740158605860 -1.39255709860986 -0.18996677687769
 6 -4.13327469986999  2.54059708590859 -0.63304449344934
 6 -2.73157359545955  2.65131308890889 -0.65775852365237
 6  4.02907687318732 -0.41292179827983 -0.36778629502950
 6  2.65641268986899 -0.50130460196020 -0.34403935653565
 6 -2.21793034323432  4.01874645724572 -1.09215836323632
 6 -1.84485157065707  1.61376412081208 -0.57963397979798
 6  1.81444998999900  0.47182874437444 -0.61906046794679
 6  2.15290861196120 -1.88912169946995  0.06079844774477
 6 -0.40891315021502  1.60077139843984 -0.56536989678968
 6  0.39651448224822  0.47734940274027 -0.45790905170517
 1 -11.09182592409241  1.21385317061706 -0.16604845004500
 1 -12.46808028112811 -1.97294730843084  2.39790768546855
 1 -11.04895256485649 -2.15174436943694  1.31330461306131
 1 -12.77305093869387 -3.28389749704970  0.29526438853885
 1 -10.11087648894889  0.08034971057106  2.66943556745675
 1 -11.04635480208021  1.41091416841684  2.24136885878588
 1 -11.50278787108711  0.26956037503750  3.30237441524152
 1 -13.64278548034804  0.72082808510851  0.33719018931893
 1 -13.82394816541654  0.75677728512851  2.19834383638364
 1 -12.70981966736674  1.92938656045605  1.27593807710771
 1  12.49793716041604  2.17361231073107 -0.01919407620762
 1  13.09228365546555  1.94216825572557  1.72352995419542
 1 -12.74350782938294 -1.94917171367137 -1.94134832553255
 1  13.50140972577258 -0.26204595039504  1.36381671757176
 1 -9.39293165886589 -1.40812567156716 -0.03652609260926
 1  13.87959310341034 -1.23518655795580 -1.04166932293229
 1  13.34859127662766  0.45350392829283 -1.84885480928093
 1  9.47753445104510  1.83328338013801  1.71744699209921
 1  10.22443430503050  2.83091569396940  0.41937885338534
 1  10.79804347764776  2.85034000570057  2.11436758775878
 1  11.99219206050605 -0.58134538313831  2.48339476087609
 1  10.37259222982298 -0.41881442244224  2.69882301040104
 1  11.41022192129213  0.79581737853785  3.32707765076508
 1 -10.50300279827983  0.36466637733773 -2.82555995169517
 1 -11.84540359665967  1.15604160266027 -2.70058712401240
 1 -12.01988983408341 -0.51514026532653 -3.11713947154715
 1 -14.84453772707271 -2.12170112271227 -0.23083128692869
 1  8.64525359335934  0.49905013021302  0.11663430963096
 1 -8.87097226612661  1.73821547434743 -0.49186450685068
 1  11.58702443694369 -2.51780327632763 -1.64219707120712
 1  10.34354722112211 -1.71884798649865 -2.25696163016302
 1  11.77900719441944 -1.19694278437844 -3.05421136923692
 1  15.24663384368437  1.30577867766777  0.96145411431143
 1  9.60519029532953 -2.40390347204720 -0.18559500200020
 1 -5.59555401640164 -1.13784093479348  0.34586198299830
 1 -6.97600649874987 -1.15697767096710  1.30066231863186
 1 -7.11840807600760 -1.72633108130813 -0.41446966176618
 1 -6.66193848034803  2.57369616471647 -0.55264846654666
 1  6.90984453345335 -3.57271069366937  1.53361305700570
 1  6.24068141334133 -4.10223541134113 -0.00213980518052
 1  8.08382828022802 -4.08552473707371  0.15100206750675
 1  6.52767119401940 -0.16357359675968 -0.50924304620462
 1 -4.23474570617062  0.47638730393039  0.14653859625963
 1  4.85714931843184 -2.53380263326333  0.05755809500950
 1 -4.66877292299230  3.36865484728473 -0.96486614211421
 1  4.43454353055305  0.67294463336334 -0.56375559295930
 1 -1.76973673187319  3.84047549424943 -2.20303857575758
 1 -1.47945078347835  4.43208036533653 -0.43574553435344
 1 -2.96217570567057  4.89342175767577 -1.13692198589859
 1 -2.40105898629863  0.64274089958996 -0.58870360036004
 1  2.28982802490249  1.52666665586559 -0.77184419951995
 1  2.30925945364536 -2.18249465186519  0.95409378787879
 1  1.09463453475348 -2.10342963406341 -0.34572585768577
 1  2.56393914331433 -2.72446023322332 -0.61638588158816
 1 -0.06495061016102  2.64043388308831 -0.70419741124112
 1 -0.05763865986599 -0.36352652245225  0.06681602660266

