%nproc=4
%Mem=4GB
# td=(NStates=1) CAM-B3LYP/6-31G(d,p) 

TD

0 1
 8 -14.11893776897690 -2.09144752645265  0.29434969026903
 8  14.79206104290429  0.84589217581758 -0.07839724382438
 6 -11.79313217281728  0.00210628552855  1.26326114611461
 6 -11.00680764326433  0.29521229222922 -0.10437672487249
 6 -11.95446092669267 -1.53096758115812  1.37211505280528
 6 -12.67740113361336 -2.18184924972497  0.09295344624462
 6 -11.49571486038604 -0.43393087138714 -1.33874936483648
 6  11.21674500510051  0.92586422892289  1.00512079177918
 6 -11.10890236343634  0.69514125292529  2.47712476317632
 6 -13.29773593599360  0.64534018091809  1.08197927472747
 6  12.63554073457346  1.56369579607961  0.70326771297130
 6 -12.17450843674368 -1.60478834663466 -1.18645141384138
 6  13.47009863076308  0.36225389798980  0.21697901680168
 6  10.71225069936994 -0.02530194039404 -0.08528494339434
 6 -9.56155491939194  0.03530068186819  0.02686269386939
 6  12.96619459705970 -0.23219043844384 -1.10123570987099
 6  11.49097218601860 -0.55165021032103 -1.03671873067307
 6  10.20445733133313  2.15026433843384  1.06295900930093
 6  11.24744557705771  0.25263443884388  2.34460502180218
 6 -11.22847734523452  0.17361900340034 -2.66105836403640
 6 -8.60210631093109  0.85304028642864 -0.21011463396340
 6  9.23197812711271 -0.54032180798080  0.02800288408841
 6  10.99723966946695 -1.38974194099410 -2.21340094479448
 6 -7.09327064996500  0.55167240904090 -0.06186827612761
 6  8.88824528092809 -1.78614841234123 -0.08571371237124
 6 -6.60454187568757 -0.82662141904190  0.27183007160716
 6  7.49261774927493 -2.17700057205721  0.02151108880888
 6 -6.23352312831283  1.61448502300230 -0.28332018861886
 6  7.08915210941094 -3.74471819401940  0.18909912811281
 6  6.47101437043704 -1.24365465416542 -0.12129447184718
 6 -4.84606858055806  1.49785332453245 -0.25553646704670
 6  5.02032287818782 -1.46207405030503 -0.00833861406141
 6 -4.06106747914791  2.59058208440844 -0.62701389038904
 6 -2.63429386748675  2.64774273187319 -0.54890763856386
 6  4.06278024352435 -0.46568707480748 -0.10922043844384
 6  2.64957200580058 -0.61321579307931  0.12945799319932
 6 -2.03980253045305  3.92967755035504 -1.03801294869487
 6 -1.85427251275128  1.49328207260726 -0.27069308570857
 6  1.79856840184018  0.36582814431443 -0.15483404530453
 6  2.15911923302330 -2.03305609290929  0.40395276317632
 6 -0.47149940884088  1.42893421472147 -0.20996435623562
 6  0.35230006080608  0.36948861666167 -0.05729899069907
 1 -11.17853459495950  1.37409919521952 -0.51973381858186
 1 -12.65174864796479 -1.86071608530853  2.31201909660966
 1 -11.03356102570257 -1.99104829982998  1.42937622022202
 1 -12.48064169776978 -3.22030113741374  0.30519538163816
 1 -10.09874527582758  0.27233890949095  2.62708133203320
 1 -11.11480164676468  1.75438851585159  2.41486620852085
 1 -11.78597618991899  0.39861328032803  3.27950212801280
 1 -13.90314151595159  0.46649265156516  0.13642011231123
 1 -14.13495926652665  0.36880848824882  1.94459846184618
 1 -13.19634832023202  1.76011963376338  1.33837432073207
 1  12.57084445114511  2.34340929042904 -0.29102125892589
 1  13.08579300640064  2.03259729862986  1.42562016321632
 1 -12.55851933053305 -2.30972776927693 -2.18487267796780
 1  13.47586717151715 -0.27109685548555  0.90144047994799
 1 -9.39012137783778 -0.86912177117712  0.54093165316532
 1  13.54940008410841 -1.22099513881388 -1.45392054805481
 1  13.00684710221022  0.42638121602160 -1.80125004880488
 1  9.13523022062206  1.93133318511851  1.67389263666367
 1  9.83976583818382  2.61091369376938  0.19001591709171
 1  10.84243791709171  2.79583455515552  1.73902005300530
 1  11.91422426372637 -0.57659490809081  2.46575299669967
 1  10.25135010561056 -0.25382792379238  2.64329745784578
 1  11.74354525362536  0.97352514931493  3.11880682368237
 1 -10.20243274127413  0.41092100280028 -2.63543093879388
 1 -11.60033909020902  1.16487248574857 -2.85186225152515
 1 -11.39109695479548 -0.21866061736174 -3.71423918151815
 1 -14.50939421272127 -2.56032498509851 -0.43717192099210
 1  8.58761782978298  0.19948017321732  0.37821046724673
 1 -9.08228339723972  1.84257591039104 -0.52437775817582
 1  11.37384311881188 -2.35357685368537 -1.94248710021002
 1  9.99478234463446 -1.58050415211521 -2.23017895189519
 1  11.46771606530653 -1.08520161026103 -3.05152110021002
 1  15.12404158445845  1.14143224302430  0.62433040194019
 1  9.76122589888989 -2.28935201690169 -0.12340878337834
 1 -5.44081854285428 -0.97577472817282  0.01180857765777
 1 -6.63854275237524 -1.13491546474647  1.40084233663366
 1 -7.10680691589159 -1.31484993319332 -0.60733894869487
 1 -6.69276156265627  2.54884367946795 -0.39432263396340
 1  6.62627617661766 -3.88638206080608  1.27909760546055
 1  6.40929827502750 -4.11016620442044 -0.37847743894389
 1  7.99835973337334 -4.27430361496150 -0.04468750145015
 1  6.70696912381238 -0.12458969836984 -0.34738686058606
 1 -4.53847607920792  0.56500616581658 -0.14172022962296
 1  4.65890949444944 -2.44112336533653  0.52479481868187
 1 -4.65215126082608  3.47462544434443 -0.82433208870887
 1  4.56198627482748  0.69331667056706 -0.45332454985499
 1 -1.41519127732773  3.71385283198320 -1.95871414331433
 1 -1.20600343874387  4.46684384168417 -0.47800976077608
 1 -2.66979646774677  4.64922733823382 -1.23108140184018
 1 -2.49819870027003  0.62104873037304  0.15122039203920
 1  2.32506154825483  1.41215520472047 -0.22409942504251
 1  2.45392392009201 -2.13591999439944  1.40764914341434
 1  1.03268834013401 -2.25831512261226  0.19804851975198
 1  2.73614636403640 -2.67548533573357 -0.20222446544654
 1 -0.03968808390839  2.37282712241224 -0.37740473197320
 1 -0.03829672567257 -0.59514968476848  0.16054539953995

