%nproc=4
%Mem=4GB
# td=(NStates=1) CAM-B3LYP/6-31G(d,p) 

TD

0 1
 8 -14.15689156435644 -1.79107748944894  0.60017027232723
 8  14.81078291509151  0.91840942754275  0.30367096299630
 6 -11.74729758935894  0.15699177407741  1.42756757675768
 6 -11.05004196669667  0.39672244324432  0.00532424522452
 6 -12.00945642624262 -1.32176666106611  1.36881472277228
 6 -12.80564395789579 -1.95505657045705  0.27198134903490
 6 -11.70477576647665 -0.34618209650965 -1.18429391929193
 6  11.10231356195619  1.05722736523652  1.18622890259026
 6 -10.95748722192219  0.60550228902890  2.60206725742574
 6 -13.18951511391139  0.92846849374937  1.48238931573157
 6  12.47846502700270  1.51510093659366  0.96074346054605
 6 -12.43388437433743 -1.46471433923392 -1.07064983368337
 6  13.49164078497850  0.45355302790279  0.46540385928593
 6  10.68717819211921  0.06866745654565  0.02131571667167
 6 -9.57411617551755 -0.00806365456546  0.13471347894789
 6  13.01982996059606 -0.03119033843384 -0.88003358965897
 6  11.55146823562356 -0.38634367966797 -0.92915797459746
 6  10.08485537113711  2.25166447844784  1.03788650205021
 6  10.92281311381138  0.45043421882188  2.53746430773077
 6 -11.37236173367337  0.20731237273727 -2.50893315151515
 6 -8.49000510081008  0.71298628102810 -0.30321394389439
 6  9.21924685398540 -0.46871464726473  0.06215629942994
 6  11.28894884038404 -1.27423038983898 -2.15935554025403
 6 -7.09200052295230  0.39303654545455 -0.22029411871187
 6  8.90142659905991 -1.77500729822982 -0.15531067206721
 6 -6.83631505300530 -1.02114087098710  0.12913580218022
 6  7.45190367786779 -2.15143801580158 -0.19409047134713
 6 -6.12050182618262  1.37312088658866 -0.56925878247825
 6  7.12546574077408 -3.60562428462846 -0.15107488928893
 6  6.51480874987499 -1.21454174287429 -0.20123246564656
 6 -4.77357133083308  1.32988652785279 -0.54713562696270
 6  5.07891873777378 -1.57819566246625 -0.19613739393939
 6 -3.97455882828283  2.39982300850085 -0.69654084308431
 6 -2.67205764386439  2.45643360096010 -0.81713446124612
 6  4.13699766526653 -0.57775828192819 -0.21034055045505
 6  2.70107715631563 -0.95924039553955 -0.10768572117212
 6 -1.91620017021702  3.82748733133313 -1.05126427382738
 6 -1.77755484098410  1.33884662906291 -0.57205322172217
 6  1.85417396239624  0.19351091259126 -0.25851441334133
 6  2.17747106820682 -2.34377716501650  0.01995436333633
 6 -0.34516677557756  1.35699702100210 -0.49180254005401
 6  0.44481931273127  0.18987065486549 -0.27919117991799
 1 -10.76509325082508  1.56633841914191 -0.22773461866187
 1 -12.48055152825282 -1.69182919661966  2.16277417211721
 1 -11.01271894149415 -1.97875707070707  1.31721500410041
 1 -12.52378601220122 -2.96595570287029  0.26237109920992
 1 -10.00031543284329  0.11698337393739  2.57979660356036
 1 -10.70678084468447  1.54045712271227  2.67407212911291
 1 -11.59982757505751  0.31000441944194  3.40432461026103
 1 -13.88691989378938  0.82283828612861  0.67410388068807
 1 -13.66969273987399  0.69510111751175  2.37575157715772
 1 -12.88961764716472  1.89666328812881  1.36011649494950
 1  12.44464183088309  2.18914386388639  0.15636347954796
 1  12.93938836593659  1.99592363126313  1.66559416061606
 1 -12.89743322192219 -1.75569236573657 -1.95567975867587
 1  13.52776236103611 -0.36436618241824  1.31441177707771
 1 -9.25194756045605 -1.17654251325132  0.46905446544654
 1  13.56958210231023 -0.90874391369137 -1.30604576057606
 1  13.39896631413141  0.64522310021002 -1.55135505930593
 1  9.03606030363036  2.05151520332033  1.33074832223222
 1  10.22054391599160  2.67149975237524  0.05757267276728
 1  10.55950962426243  3.12065703740374  1.63590974197420
 1  11.76094893619362 -0.29734698329833  2.83679010041004
 1  9.83727869846985 -0.02899544054405  2.54698782688269
 1  10.91836273537354  1.29035683248325  3.51373631663166
 1 -10.37096959495950  0.18576848754876 -2.63068046374637
 1 -12.01729078537854  1.31919791829183 -2.81843890919092
 1 -11.79758760386039 -0.73855260656066 -3.10623838143814
 1 -14.68539181248125 -2.24471342394239 -0.08577678147815
 1  8.59875894389439  0.20424064926493  0.35124777097710
 1 -8.82161733063306  1.71712336513651 -0.79161448184818
 1  11.38063379787979 -2.32203369936994 -1.88143099459946
 1  10.12844571097110 -0.98936503820382 -2.25943187718772
 1  11.74554384808481 -1.01377446754675 -2.88707465556556
 1  15.12348152845285  1.36752485228523  0.93970193909391
 1  9.69859963626363 -2.57456053775378 -0.04274071657166
 1 -5.74203866486649 -1.06407355805581  0.19141653845385
 1 -7.29983888198820 -1.36645861906191  1.21410366276628
 1 -7.25426166136614 -1.85755420362036 -0.61834004880488
 1 -6.53399568606861  2.38002679777978 -0.82948615031503
 1  7.19366291529153 -4.10078350095010  0.84856455215521
 1  6.16538388358836 -3.88801398919892 -0.76481607280728
 1  8.15554545194519 -4.34437062166217 -0.82214524722472
 1  6.67527595449545 -0.08209544894489 -0.43622574447445
 1 -4.35052728432843  0.40985065026503 -0.33371942954295
 1  4.73679728322832 -2.50892014501450  0.32002434163416
 1 -4.44409045474547  3.39296727852785 -1.04808446394639
 1  4.20340041624162  0.57786512541254 -0.22667188458846
 1 -1.49651941014101  3.86627807450745 -2.09424769666967
 1 -1.16893973237324  4.17076423372337 -0.17138909870987
 1 -2.63428291639164  4.70916333183318 -0.86090438413841
 1 -2.54384326472647  0.45303192869287 -0.41661639163916
 1  2.22004104620462  1.20289427862786 -0.16916393149315
 1  2.52080060776078 -2.64518092049205  0.87340571907191
 1  1.08742381368137 -2.37355664676468 -0.06446773187319
 1  2.52826557595760 -2.90463825102510 -0.87908215121512
 1  0.15777166206621  2.24777461716172 -0.61473846534653
 1 -0.01019391539154 -0.93756392619262 -0.09730038503850

