%nproc=4
%Mem=4GB
# td=(NStates=1) CAM-B3LYP/6-31G(d,p) 

TD

0 1
 8 -14.01982785798580 -2.18992737443744  0.47369762506251
 8  14.74871670847085  0.80439802640264  0.17047764366437
 6 -11.74496735633563  0.03234930983098  1.26691151115112
 6 -11.01530849334934  0.37215998699870 -0.09610589778978
 6 -11.85340082068207 -1.46712119651965  1.44057189848985
 6 -12.61372476597660 -2.16799786458646  0.29115326622662
 6 -11.70390567946795 -0.37919539783978 -1.25205069496950
 6  11.14073740434043  1.03652529502950  0.93950423012301
 6 -10.81411288448845  0.57661940074007  2.43782083278328
 6 -13.09638580098010  0.72391803870387  1.31937301410141
 6  12.57238441894189  1.49645907240724  0.68465585178518
 6 -12.34531551745174 -1.52855072287229 -1.09970273897390
 6  13.46059768066807  0.39941761436144  0.39967728662866
 6  10.67794726902690 -0.03168257845785 -0.05770218511851
 6 -9.50129889378938 -0.02723557175718 -0.03452344474447
 6  13.09784776237624 -0.31537875727573 -0.78914450075008
 6  11.48750183898390 -0.59225427072707 -0.89940499929993
 6  10.19821670727073  2.22113142514251  1.03853656705671
 6  11.10708154065406  0.36919609500950  2.33449401070107
 6 -11.46826132363236  0.16543818531853 -2.59742200040004
 6 -8.46781288158816  0.84671965436544 -0.19387300980098
 6  9.23613854315431 -0.47246502230223  0.03037312111211
 6  11.04659460496049 -1.41401436823682 -2.06161576627663
 6 -6.99489081198120  0.47250449224923 -0.15521761106111
 6  8.76109256565657 -1.70875067256726 -0.08337347834783
 6 -6.64239566106611 -0.97574633153315  0.11442433103310
 6  7.37246573407341 -2.09392226422642  0.03427236493649
 6 -6.18511828782878  1.53090666516652 -0.27499935653565
 6  7.06672986718672 -3.58138186038604  0.07367758595860
 6  6.30446771577158 -1.22783307200720 -0.14378672107211
 6 -4.75660963466347  1.58667220642064 -0.24507542094209
 6  4.94333517941794 -1.51203904680468 -0.04810259045905
 6 -4.00792216461646  2.68693171937194 -0.65309649864986
 6 -2.54016445454545  2.62351030863086 -0.66102885068507
 6  3.92159612511251 -0.56698720482048 -0.17228674507451
 6  2.60937798639864 -0.74224869636964 -0.07584253685369
 6 -1.92373092329233  3.92956753935394 -0.81514066146615
 6 -1.73239032453245  1.46993973837384 -0.51943796019602
 6  1.70877942294229  0.30552211371137 -0.46470503240324
 6  2.03594691579158 -2.12094488178818  0.28082044994499
 6 -0.43145540444044  1.58272959425943 -0.57347070687069
 6  0.35785061586159  0.37579924772477 -0.44283754455446
 1 -11.21404814631463  1.46620840614061 -0.47875972117212
 1 -12.51860533363336 -1.76532654635464  2.33319121382138
 1 -10.78675634523452 -1.82056125112511  1.77750103270327
 1 -12.30849448304830 -3.42907201450145  0.15963082518252
 1 -9.90667606890689 -0.13499182358236  2.31949057295730
 1 -10.67856802340234  1.66537961496150  2.36227094899490
 1 -11.31384897719772  0.45971939093909  3.53741791959196
 1 -13.80698189999000  0.31034703700370  0.46751322162216
 1 -13.68692446304630  0.55573718111811  2.26608061006101
 1 -13.00624931033103  1.84231785358536  1.07601808510851
 1  12.62634000070007  2.13444839433943 -0.29884204100410
 1  12.79428385548555  2.29899393829383  1.55746334753475
 1 -12.80348382698270 -2.08313511001100 -1.89125331603160
 1  13.57742732753275 -0.42941268706871  1.25659599549955
 1 -9.43215558125813 -1.05406026502650  0.02890045004500
 1  13.50175531963196 -1.22234527382738 -0.78440359635964
 1  13.44107052455245  0.35087366526653 -1.66173609740974
 1  9.16600329792979  1.96653670547055  1.47497274467447
 1  10.13646550815082  2.76893949634963  0.01505842134213
 1  10.75426910021002  3.00688566026603  1.67959411041104
 1  11.61585442674268 -0.78613586218622  2.51669809120912
 1  10.18020299089909  0.23333079207921  2.75184831293129
 1  11.53217411651165  1.10305810261026  3.00329527252725
 1 -10.36907940594059  0.26394630533053 -2.84625202090209
 1 -12.12849190549055  1.17223322182218 -2.55634269956996
 1 -11.98083592869287 -0.48510726202620 -3.30263802140214
 1 -14.31791506480648 -2.46463541614161 -0.39452765656566
 1  8.48898796679668  0.19757998319832  0.40669331553155
 1 -8.47406257515752  1.76365801860186 -0.32239756015602
 1  11.66971270577058 -2.39921141714171 -2.02419527102710
 1  9.92214508090809 -1.40141624332433 -2.07535346934693
 1  11.50555984968497 -1.04678776887689 -3.01939788788879
 1  15.23209238953895  0.84484258405841  1.00499846874687
 1  9.48091786808681 -2.61121420312031 -0.35915235773577
 1 -5.50293475447545 -1.25444259495950 -0.17071967516752
 1 -6.95045394349435 -1.14670664386439  1.00012226462646
 1 -7.18766500170017 -1.61605005320532 -0.65727394219422
 1 -6.52120440694069  2.69482827792779 -0.28422162386239
 1  7.02743629262926 -3.98733215581558  1.18483817951795
 1  6.02447979317932 -3.88828401620162 -0.52985257645765
 1  7.80152004940494 -4.31477766236624 -0.36013904660466
 1  6.56686511341134 -0.16654389378938 -0.30813293519352
 1 -4.21113334493449  0.73070273547355  0.12550649304931
 1  4.44031763526353 -2.53885313831383  0.20542288148815
 1 -4.25396144184418  3.75590357215722 -0.96456611211121
 1  4.28553863006301  0.35514285318532 -0.42866208360836
 1 -1.25085484368437  4.05993744044404 -1.79934820672067
 1 -1.23100593899390  3.91933909120912  0.22529056925693
 1 -2.52859234733473  4.71057347284728 -0.73159145284529
 1 -2.34870375077508  0.49139576507651 -0.63905863586359
 1  2.25395443754375  1.27154114331433 -0.64529154425443
 1  2.83612213991399 -2.72352875527553  0.98834721322132
 1  0.76367143844384 -2.00447973907391  0.91332004690469
 1  1.57941069046905 -2.68251603880388 -0.98665290829083
 1  0.17362324722472  2.50782062176218 -0.74567155865587
 1 -0.02954585058506 -0.64159432923292 -0.15147580258026

