%nproc=4
%Mem=4GB
# td=(NStates=1) CAM-B3LYP/6-31G(d,p) 

TD

0 1
 8 -14.02299817501750 -2.35801418311831  0.52422267756776
 8  14.82556439323932  0.79687727432743  0.27889848574858
 6 -11.89367222682268 -0.04795872097210  1.39161398139814
 6 -10.97467442994300  0.32031480248025  0.08389210201020
 6 -11.95744122472247 -1.53483796819682  1.53838167946795
 6 -12.61582497599760 -2.30425148994899  0.36859101000100
 6 -11.42517780668067 -0.46776425472547 -1.15753124302430
 6  11.07924125472547  0.94678632113211  1.13509378907891
 6 -11.12125359855986  0.64106584538454  2.58099515021502
 6 -13.26036219861986  0.66610225712571  1.15564664146415
 6  12.53942112261226  1.45745517201720  0.76095348154815
 6 -12.13810479637964 -1.59697756555656 -0.99137190589059
 6  13.58479009990999  0.28596626922692  0.47922524142414
 6  10.72953242754275 -0.06076548674868 -0.01652806770677
 6 -9.52822158605861  0.08972612441244  0.26377638523852
 6  13.12978095569557 -0.41800902030203 -0.74043963026303
 6  11.58150123892389 -0.58226327162716 -0.89448450725073
 6  10.11269815541554  2.27260657265727  1.18603131653165
 6  10.96347718021802  0.30232940834083  2.49765032633263
 6 -11.15677017451745  0.06744838633863 -2.49635189338934
 6 -8.53130923122312  0.95854083648365 -0.17191081358136
 6  9.27926285558556 -0.40468824462446  0.02559264306431
 6  11.10020996649665 -1.33094606140614 -2.06552615731573
 6 -7.06943826672667  0.68758600040004 -0.18194028332833
 6  8.74314077047705 -1.68208800630063 -0.04274941594159
 6 -6.69445086658666 -0.67015577247725  0.25888877747775
 6  7.38118660616062 -2.13885675767577 -0.08438950125013
 6 -6.22577235323532  1.71328490299030 -0.36856871347135
 6  7.14786798099810 -3.63086680888089  0.02583280148015
 6  6.28860612961296 -1.22305259395940 -0.03910625302530
 6 -4.75667964166417  1.59305284448445 -0.47072798619862
 6  4.96358720462046 -1.53159100200020 -0.10884866506651
 6 -4.07121849424943  2.75351837803780 -0.68904009300930
 6 -2.54071450955096  2.70637859545955 -0.76681942974297
 6  3.95621958745875 -0.55960646674667 -0.32102161856186
 6  2.56338338693869 -0.76753122462246 -0.43944889748975
 6 -1.92627117731773  4.01396597919792 -1.00750989838984
 6 -1.82835992149215  1.49745248964896 -0.64140015641564
 6  1.71244978997900  0.30422198369837 -0.59439800170017
 6  2.12117543864386 -2.14527731503150 -0.20074770687069
 6 -0.41809406830683  1.53813513481348 -0.72662602240224
 6  0.35846067686769  0.30835250305031 -0.50140340114011
 1 -11.24200094159416  1.38977076237624  0.11761991679168
 1 -12.63389686278628 -1.85807582128213  2.18324621932193
 1 -11.02855052465246 -2.02203139813981  1.67526080868087
 1 -12.06625025862586 -3.33808291559156  0.34460932303230
 1 -10.19696509780978  0.23975565116512  2.83437206110611
 1 -10.94502466906691  1.75559863686369  2.27037175907591
 1 -11.61745933823382  0.67325074407441  3.52159633743374
 1 -13.67841904370437  0.27009301160116  0.21408787908791
 1 -14.06057182778278  0.30733234063406  2.05642964496450
 1 -13.03392207760776  1.94946856865687  1.09702018531853
 1  12.44408177487749  2.10599554905491  0.02385022822282
 1  13.08136256335633  1.97745178407841  1.67919552075208
 1 -12.38580205880588 -2.22741953845384 -2.02319651035104
 1  13.47642722752275 -0.31507125292529  1.29161949784979
 1 -9.12137450315032 -0.91543640264026  0.50863842384238
 1  13.49074421852185 -1.61482452175217 -1.07164232023202
 1  13.35906232373237  0.27896647454745 -1.61080100390039
 1  9.28346504410441  1.86765681748175  1.67619286668667
 1  10.01852371397140  2.94547715011501  0.22988990449045
 1  10.54617829112911  3.07490246194620  1.87501365236524
 1  11.68093093439344 -0.60149739833983  2.61446786818682
 1  9.87158212881288  0.04833229222922  2.81512464056406
 1  11.13087398649865  0.96934473127313  3.22228717171717
 1 -10.14629712771277  0.01633154385439 -2.53332072777278
 1 -11.40492954925493  1.07440343884388 -2.78772583788379
 1 -11.65254309940994 -0.65008375967597 -3.22957071467147
 1 -14.68402167546755 -2.55154410701070 -0.22231043484348
 1  8.66741580958096  0.31775200040004  0.37670031623162
 1 -8.58408357725773  2.11110276307631 -0.43814913531353
 1  11.29909564406441 -2.33894539053905 -1.85216806830683
 1  9.99054192059206 -1.23630973267327 -2.01592752675268
 1  11.62937223092309 -0.86670976107611 -2.92698864696470
 1  15.21364054435444  0.78647674747475  1.13211118001800
 1  9.50992076837684 -2.50122320402040  0.03762732023202
 1 -5.64204866586659 -0.97006415711571  0.23276067286729
 1 -7.09589848794880 -0.76201817501750  1.35736798919892
 1 -7.48126436163616 -1.55598404660466 -0.13057127192719
 1 -6.59525181168117  2.74962375747575 -0.52429563126313
 1  6.98401195019502 -3.87143056565657  1.03274296999700
 1  5.95778312351235 -3.76557174497450 -0.65381497269727
 1  8.03118301570157 -4.15058124272427 -0.44584761746175
 1  6.71881030793079 -0.21269850925093 -0.27214933683368
 1 -4.29466169776978  0.49642930813081 -0.53902996059606
 1  4.71296489999000 -2.66549580258026 -0.14759242004200
 1 -4.68369441514151  3.58062604440444 -0.77198685418542
 1  4.21865194139414  0.54147148604861 -0.53272248964897
 1 -1.03717347554755  4.02553400010001 -1.63138141004100
 1 -1.50964380278028  4.62881003830383 -0.15124708450845
 1 -2.73367285538554  4.68764117961796 -1.34061235493549
 1 -2.45659453985399  0.57444406990699 -0.52697742774278
 1  2.29916895899590  1.04565855505551 -1.05793280838084
 1  2.50680920862086 -2.61074747714772  0.68662704120412
 1  0.95791086238624 -2.01748103920392  0.16482519741974
 1  2.08978172757276 -2.98585637283728 -1.01704594759476
 1  0.28194407930793  2.33101294099410 -0.96845383688369
 1 -0.04683757975798 -0.61159132893289 -0.12284293929393

