%nproc=4
%Mem=4GB
# td=(NStates=1) CAM-B3LYP/6-31G(d,p) 

TD

0 1
 8 -14.07232310751075 -1.93859224092409  0.61585184048405
 8  14.77890972777278  0.76308389498950  0.37738833473347
 6 -11.64242710231023  0.00329640454045  1.38057287728773
 6 -10.94891185368537  0.24833760476048  0.11747546034603
 6 -11.85888136873687 -1.54491897629763  1.41762960426043
 6 -12.69805319881988 -2.14009507430743  0.24498864976498
 6 -11.61894718361836 -0.30739821812181 -1.14066955685569
 6  11.06899022962296  1.09103074557456  0.98682896259626
 6 -10.74664613781378  0.30875261406141  2.50395744644464
 6 -13.06177233963396  0.86083173007301  1.41895297209721
 6  12.56609378987899  1.46687611411141  0.84062144834483
 6 -12.41204219011901 -1.39188705650565 -1.04149691839184
 6  13.47443906480648  0.36317398999900  0.54015133403340
 6  10.61497097139714 -0.03521293149315 -0.09367578247825
 6 -9.47455621952195 -0.08160100830083  0.01141114871487
 6  13.03944192179218 -0.20617783718372 -0.80909649594959
 6  11.56865995479548 -0.54143918921892 -0.88134319311931
 6  10.07409429502950  2.29912922492249  0.91286399979998
 6  10.86005683818382  0.46429560496050  2.43844440574057
 6 -11.22435693319332  0.37998964046405 -2.48235049324933
 6 -8.46998309860986  0.77499248164817 -0.18911253375338
 6  9.24926985628563 -0.47800557635764  0.05926601040104
 6  11.28982892839284 -1.51369433623362 -1.96874647934794
 6 -7.02458378127813  0.50387762956296 -0.16140823012301
 6  8.72013847024703 -1.79206900440044 -0.07713285428543
 6 -6.69136055755576 -0.98801755865587  0.07079996859686
 6  7.32752123962396 -2.14952782478248 -0.02890395269527
 6 -6.17272704870487  1.42432600710071 -0.42763462006201
 6  6.96329952415241 -3.53593731593159  0.14502472067207
 6  6.34835210421042 -1.14495478417842 -0.21079342174217
 6 -4.73053702740274  1.36741028022802 -0.60060097349735
 6  4.94146499239924 -1.50884872777278 -0.24225200540054
 6 -4.04645601800180  2.50468349454946 -0.75209639863986
 6 -2.60287072517252  2.58498645624562 -0.85935868366837
 6  3.99233319881988 -0.54366487258726 -0.45508502490249
 6  2.56402345094509 -0.73794826632663 -0.22367732033203
 6 -2.05694424462446  4.04921950455045 -0.85201434883488
 6 -1.77969505500550  1.52139488388839 -0.48025404180418
 6  1.64677322232223  0.24697625912591 -0.46238480038004
 6  2.15972929402940 -2.17629041634163  0.16734910281028
 6 -0.32317457635764  1.53525484678468 -0.57610096989699
 6  0.32271710251025  0.27472914071407 -0.49057231803180
 1 -10.95486222772277  1.26426821212121  0.15192334713471
 1 -12.57415088818882 -1.86855686938694  2.30511840654065
 1 -10.85885355495549 -2.08564775977598  1.34955823842384
 1 -12.43076671027103 -3.08239734703470  0.23969883198320
 1 -9.79022442374237 -0.30472879727973  2.57507613151315
 1 -10.66793696029603  1.32731580858086  2.60167488938894
 1 -11.45897348964897  0.21904532353235  3.50474465226523
 1 -13.83850505230523  0.35547154945494  0.67910438073807
 1 -13.52945871647165  0.84374598199820  2.30258426042604
 1 -12.76277496289629  1.80956457825783  1.02675315861586
 1  12.53623098979898  2.26933188268827  0.13692153535354
 1  12.73440786788679  2.21555559445945  1.85673327452745
 1 -12.53565704430443 -1.86966376287629 -1.90207439813981
 1  13.50155974077408 -0.44209395519552  1.23745408130813
 1 -9.05262762846285 -1.20114497349735 -0.01184362436244
 1  13.84298944304430 -0.98214125342534 -0.90273542954295
 1  13.46307272477248  0.74768334623462 -1.39783970777078
 1  9.00946764436444  2.26095614741474  1.22066731413141
 1  9.89714157575758  2.50528313071307 -0.16191927642764
 1  10.40619429272927  2.99547451915192  1.49260541154115
 1  11.53930677197720 -0.52032928152815  2.61603802520252
 1  9.86709167976798  0.07633509250925  2.57020014811481
 1  11.06077697679768  1.33978177497750  3.13003794679468
 1 -10.16071856985699  0.34815472617262 -2.65284267996800
 1 -11.71679073537354  1.41958795729573 -2.28350541584158
 1 -11.75173301840184 -0.04904365566557 -3.38536629422942
 1 -14.46441971527153 -1.74973392599260 -0.37424562836284
 1  8.61176024402440  0.40385061026103  0.16821946814681
 1 -8.63154832373237  1.84883653645364 -0.10433575397540
 1  11.98938467296730 -2.27066856285629 -1.87485033653365
 1  10.20988385478548 -1.63839994169417 -2.22729866386639
 1  11.74502379607961 -0.97690078017802 -2.86834278237824
 1  15.06167534783478  1.35712381218122  1.05739370827083
 1  9.52010178647865 -2.49197227892789  0.03620717821782
 1 -5.58412287328733 -1.26074322502250 -0.22101470467047
 1 -6.87654655275528 -1.25342731593159  1.15730798319832
 1 -7.28306454165416 -1.56581502970297 -0.53088130293029
 1 -6.61926421292129  2.56916571167117 -0.37755095679568
 1  6.43013656265626 -3.79875329792979  1.10758045374537
 1  6.40361770697070 -4.11866705450545 -0.78977856905691
 1  7.90134003140314 -4.16224240884088  0.27730469776978
 1  6.61586001290129 -0.15344258365837 -0.44458658055806
 1 -4.24297652925293  0.42171183638364 -0.71688774637464
 1  4.66782038553855 -2.39314856785679  0.11990432963296
 1 -4.61873791949195  3.38028601040104 -0.89161881738174
 1  4.26163623982398  0.50221756065607 -0.81434065146515
 1 -1.44388414661466  4.09209065576558 -1.75988426032603
 1 -1.51341417981798  4.10946810411041 -0.08860081988199
 1 -2.79988947704771  4.71980439593959 -1.00108840254025
 1 -2.37722660306031  0.59873649914992 -0.28769349934993
 1  2.22176121822182  1.11185517471747 -0.45153216831683
 1  2.98745727342734 -2.55072147454745  0.85834421292129
 1  1.01286635793579 -2.12336162726273  0.53605232013201
 1  2.09778252765277 -2.75829361656166 -0.87120136313631
 1  0.25796168106811  2.40666050575058 -0.81154814631463
 1 -0.14347724372437 -0.66598676847685 -0.24639529452945

