%nproc=4
%Mem=4GB
# td=(NStates=1) CAM-B3LYP/6-31G(d,p) 

TD

0 1
 8 -14.08840471567157 -2.09135751745175  0.56975723102310
 8  14.70783262006201  0.99054664126413  0.14381497739774
 6 -11.61488434803480 -0.06132005710571  1.30405522552255
 6 -10.92544950745074  0.28423119411941 -0.00037632483248
 6 -11.89237471807181 -1.54347883228323  1.57129497079708
 6 -12.66288968246825 -2.20100116491649  0.34160831173117
 6 -11.64410969986999 -0.46723420172017 -1.23448893879388
 6  10.95108843944394  0.81947358985899  1.09647992769277
 6 -10.81534300750075  0.48453019181918  2.55371242194219
 6 -12.91285744814481  0.84401004790479  1.28564964176418
 6  12.34230141064107  1.36192561906191  0.84914230043004
 6 -12.25202618851885 -1.61119898769877 -0.96563933263326
 6  13.43654527542754  0.43141081368137  0.34891221012101
 6  10.58169764406441 -0.15507491769177  0.01964554965497
 6 -9.41160992489249 -0.10147299549955 -0.05268526092609
 6  12.93846182378238 -0.12710993039304 -0.96538212451245
 6  11.42971606040604 -0.51501654695470 -0.91912697149715
 6  10.00361724732473  2.10507981998200  1.41248396179618
 6  11.04618545104510  0.15371454685469  2.51385194649465
 6 -11.41724622212221  0.05723736523652 -2.56142840104010
 6 -8.45921202150215  0.85263024542454 -0.21048467096710
 6  9.17248217751775 -0.46006378217822  0.08428851265127
 6  11.08639858535854 -1.43210617741774 -2.13990359505951
 6 -7.03678500140014  0.62900014181418 -0.18447053635364
 6  8.74625108150815 -1.64860465796580 -0.19512465346535
 6 -6.64150557205721 -0.78879763666367  0.06228911751175
 6  7.27096558405841 -2.14950782278228 -0.07550861316132
 6 -6.09354913091309  1.68398197269727 -0.23907576417642
 6  6.99133232743274 -3.59074279647965  0.17992821102110
 6  6.33370063906391 -1.15819610831083 -0.14368671107111
 6 -4.67720169386939  1.60201374057406 -0.42662357575758
 6  4.92629347524752 -1.43859170207021 -0.14394217441744
 6 -3.87388876127613  2.72604563076308 -0.70658184718472
 6 -2.48297873597360  2.63942189978998 -0.80761350915092
 6  3.97726169166917 -0.50546105220522 -0.24816433283328
 6  2.65592264086409 -0.75205967746775 -0.11419637223722
 6 -1.85038358855886  4.04205878847885 -1.16423557095710
 6 -1.75874295979598  1.50834357875788 -0.61520753715372
 6  1.81622016701670  0.37504906640664 -0.34423298519852
 6  2.12244556565657 -2.19205199249925  0.08800116801680
 6 -0.38492075097510  1.47252857415742 -0.66015937573757
 6  0.43193802460246  0.42386405420542 -0.46897015781578
 1 -10.80338708020802  1.30011179647965 -0.31956380158016
 1 -12.44028750185018 -1.79834984868487  2.52821071577158
 1 -10.98815648524852 -2.10018921392139  1.62846612921292
 1 -12.44310794439444 -3.37196630393039  0.27073193529353
 1 -9.70348574987499  0.09922159775978  2.60701932583258
 1 -10.42590275687569  1.61633471047105  2.33577829972997
 1 -11.38056564886489  0.33174659365937  3.50200437823782
 1 -13.45461666346635  0.72852885518552  0.41269774007401
 1 -13.66575234583458  0.52190379777978  2.07083108510851
 1 -12.71402008740874  1.81213483528353  1.38074855815582
 1  12.18090545724572  2.26510145964596 -0.02877503430343
 1  12.76618104520452  2.16975101400140  1.58288588978898
 1 -12.91641512011201 -2.02056885338534 -1.90489468016802
 1  13.51217080188019 -0.42676242204220  1.23540387628763
 1 -9.29527189288929 -1.17607246624663  0.10280784078408
 1  13.55169031313131 -1.06303934323432 -1.00777593359336
 1  13.16598301580158  0.63488206610661 -1.77535745954596
 1  9.09542624022402  1.82191224302430  1.86329157655766
 1  9.64570643224322  2.39256185858586  0.47081399689969
 1  10.40539421272127  2.68546351805180  1.95296144714471
 1  11.61026386768677 -0.72833008160816  2.64185060646065
 1  9.92344731533153 -0.18355089608961  2.73500662876288
 1  11.38894979407941  0.98983678047805  3.32904784778478
 1 -10.34268676667667 -0.06431652095210 -2.82065946164616
 1 -11.68209726602660  1.14871086958696 -2.69384644994499
 1 -11.93764160926093 -0.61731048234824 -3.19002676027603
 1 -14.35984925822582 -2.66627558015802 -0.36299450325032
 1  8.45833490149015  0.30357058225823  0.38089073527353
 1 -8.74917008590859  1.97074872767277 -0.09420474087409
 1  11.39922565706571 -2.54101559755976 -1.94602745424542
 1  9.92607547394740 -1.29801590329033 -2.41447738173817
 1  11.61584087778778 -1.01802489258926 -3.13153910201020
 1  15.18573775407541  1.13915201500150  0.99724769366937
 1  9.28712848914892 -2.46824990669067 -0.23212965546555
 1 -5.58038249924993 -0.93367051775177 -0.07794039723972
 1 -6.78546744484448 -1.11588356155616  1.05079733213321
 1 -7.22708894409441 -1.47042549074907 -0.74930314511451
 1 -6.54227651415141  2.66111490659066 -0.40934413611361
 1  6.26897044604460 -3.75531895449545  1.16789648534853
 1  6.59723706890689 -4.12799798759876 -0.78404799599960
 1  7.89237913531353 -4.15270145474548  0.36266323362336
 1  6.56883531043104 -0.13463070247025 -0.32485460736074
 1 -4.19368159975998  0.75531519671967 -0.15946200380038
 1  4.53462706620662 -2.33352260526053  0.14568690789079
 1 -4.43195924162416  3.59998798059806 -0.88953860936094
 1  4.24165424162416  0.56162350125013 -0.50232945034503
 1 -1.35849560776078  4.09072051875188 -2.11931020292029
 1 -1.02197503590359  4.36248340564056 -0.59672163196320
 1 -2.47012650075008  4.84824724022402 -1.28716701040104
 1 -2.38169705010501  0.70429705520552 -0.49471420142014
 1  2.28693773587359  1.26749073827383 -0.18845586068607
 1  2.87655618331833 -2.72730913331333  1.05260363886389
 1  1.03801887318732 -2.01074036513651  0.86980569546955
 1  1.98089083848385 -2.91599938713871 -0.87149139213921
 1  0.18998488338834  2.30636047574757 -0.87914490599060
 1 -0.04381727772777 -0.56197636743674 -0.54202485748575

