%CPU=0-7
%Chk=dihydrobiliverdin-s1-geom-freq-new-try-b3lyp.chk
%Mem=12GB
#n B3LYP/SVP Opt=(ReadFC) Geom=Checkpoint Guess=Read Freq=(SaveNormalModes,NoRaman) Td

 dihydrobiliverdin-s1-geom-freq-new-try-b3lyp.com

0 1


