%NProcShared=8
%Chk=dihydrobiliverdin-s1-geom-freq.chk
%Mem=6GB
#n B3LYP/aug-cc-pV6Z td Opt Freq=savenormalmodes

 dihydrobiliverdin-s1-geom-freq.com

0 1
O          5.15041       -0.16043        2.45986
O         -1.56654        1.65870       -4.47013
O         -2.87345       -0.03129       -3.84513
O         -6.38990       -4.11037        1.63744
O         -5.79609       -3.22184        3.59046
O          1.80589        3.30899       -1.78571
N          0.80589       -2.61732        0.77362
N          3.97930       -1.11120        0.79058
N         -1.58077        0.57910        0.62028
N         -0.09704        2.79338       -0.57842
C          4.17724       -2.18067       -0.15454
C          3.10229       -3.27428        0.02263
C          1.72228       -2.71778       -0.20706
C          1.19573       -2.23234       -1.40001
C         -0.09098       -1.78140       -1.10993
C         -0.28392       -2.02600        0.25360
C          5.57244       -2.68316        0.17663
C         -1.12498       -1.25324       -2.08669
C          6.07917       -1.97526        1.21936
C         -1.49618       -1.75972        1.06010
C         -2.08558       -0.55050        1.15977
C          5.05799       -0.99365        1.57191
C         -3.24550       -0.25818        1.87509
C          1.86815       -2.24133       -2.74269
C          6.19551       -3.77981       -0.64683
C         -3.43634        1.11898        1.75630
C         -0.71200        0.02114       -2.84159
C         -2.38084        1.60614        0.98577
C         -4.11152       -1.24481        2.62813
C          7.37286       -2.02801        1.96903
C         -4.81809       -2.21544        1.66494
C         -4.54402        1.95257        2.34532
C         -2.18876        2.91403        0.68055
C         -1.79613        0.54031       -3.75074
C         -1.05097        3.49750       -0.09322
C          8.32336       -2.96710        1.91588
C         -5.69870       -3.21314        2.37128
C         -0.85056        4.95115       -0.39813
C          0.31094        5.03670       -1.09223
C          0.78294        3.66751       -1.22434
C         -1.81094        6.01195        0.04579
C          1.09487        6.20240       -1.63308
C         -1.87819        7.27718       -0.38238
H          4.16677       -1.76740       -1.18328
H          3.16945       -3.65931        1.06405
H          3.27260       -4.12402       -0.67114
H          0.92875       -2.91313        1.76810
H          3.13939       -0.51639        0.85504
H         -1.33436       -2.05298       -2.82957
H         -2.06968       -1.05201       -1.54064
H         -1.87736       -2.58830        1.64641
H          2.84664       -2.75821       -2.70696
H          1.23202       -2.78642       -3.47063
H          2.04812       -1.20768       -3.09353
H          6.17724       -3.47025       -1.71255
H          5.60661       -4.71335       -0.53946
H          7.24192       -3.99742       -0.41953
H         -0.46201        0.81924       -2.12499
H          0.17464       -0.17377       -3.46894
H         -0.70161        0.62393        0.07199
H         -4.89677       -0.72141        3.20435
H         -3.47975       -1.79605        3.35739
H          7.55192       -1.21493        2.66708
H         -4.07656       -2.78139        1.06662
H         -5.45160       -1.62702        0.96615
H         -5.27858        1.36028        2.91903
H         -5.09141        2.46630        1.52767
H         -4.11126        2.71361        3.02773
H         -2.92173        3.61605        1.05146
H          8.27842       -3.85329        1.31511
H          9.20344       -2.85779        2.54199
H         -2.23778        2.02370       -5.06409
H         -2.56299        5.73408        0.77245
H          0.70631        7.19154       -1.37144
H          2.11903        6.16299       -1.20631
H          1.17019        6.11728       -2.73704
H         -6.96706       -4.76641        2.05346
H         -2.64289        7.93146        0.02461
H         -1.24527        7.69963       -1.13778

