%nproc=4
%Mem=2GB
# td(NStates=1) B3LYP/SVP nosymm

phycocyanobilin-emi Single Point

0 1
O  -4.23557323  -4.79957257   1.94619124
O   3.01665236  -4.94424593   0.89181714
O   6.86168793  -1.61598874   2.07934047
O   3.85941647  -3.16815985  -0.22354566
O   7.65257571  -0.49374925   0.15604453
O  -3.19594906   2.49564603  -0.57485508
N  -0.26191337  -0.53102249  -0.69414861
N   1.57907388   1.88402852  -0.45209618
N  -3.30276328  -3.21042475   0.67398127
N  -0.85198035   2.91932047  -0.26430198
C   0.63309938  -2.27153953  -1.46182180
C   0.96221197  -1.01268935  -0.95995363
C  -0.69513076  -2.61743320  -1.34813321
C  -1.31265361  -1.45880095  -0.76551866
C   3.81430802   1.54049598  -0.24602017
C   2.57203513   0.95216742  -0.51785635
C   2.16563849  -0.35760071  -0.81564846
C   3.59443741   2.87953766   0.08326187
C   1.62418678  -3.26459840  -2.12671270
C  -5.44142070  -2.75001097   1.51222531
C  -3.57279946  -1.92847002   0.16096577
C   2.11380899   3.03981369   0.04035910
C  -4.99960364  -1.61548001   0.57906202
C   5.14362222   0.75910759  -0.25016441
C  -2.61793241  -1.08807927  -0.52685508
C  -1.56129139  -3.79794781  -1.80269005
C  -4.31431766  -3.74595246   1.47848969
C   2.12825924  -4.48273833  -1.23429949
C   5.37026515  -0.12953148   1.03515957
C   4.50182954   3.93755439   0.36460506
C   1.24383549   4.08312849   0.42924750
C  -6.79442395  -3.45873269   1.09225171
C  -5.89632715  -0.64515534   0.28222173
C  -0.08971202   3.99319413   0.21937683
C  -1.11266871   5.07406248   0.51717877
C  -2.34567708   4.69180148   0.17123884
C   3.13601043  -4.06635243  -0.12063827
C  -5.48495638   0.57027294  -0.56687608
C   6.72101210  -0.76625794   0.90257007
C  -3.69043388   5.33299224   0.21862854
C  -2.23914443   3.22915523  -0.28136818
C  -0.69461512   6.44968940   0.97021931
C  -4.24382030   5.43271531  -1.17546457
H  -0.54278940   0.40236230  -0.26869347
H   2.96621723  -1.18168889  -0.99476038
H   2.57287695  -2.79536382  -2.52854272
H   1.21373543  -3.71133759  -2.98942313
H  -5.38810218  -2.21926703   2.62126579
H   5.48953937   0.25136892  -1.28376447
H   6.05269621   1.41540348  -0.11744938
H  -2.79217491  -0.02597959  -0.62305568
H   0.60758321   1.68529265  -0.53094129
H  -1.60342839  -4.69061913  -1.14853006
H  -2.68766417  -3.44204985  -1.94674912
H  -1.37070867  -3.90675471  -2.82861084
H  -2.39348408  -3.63602492   0.79318129
H   1.28866148  -4.85644647  -0.71130401
H   2.57843963  -5.38891241  -1.79151767
H   4.69879925  -0.73150655   0.95935051
H   5.34898297   0.35418275   1.99979015
H   4.44704677   4.83844992  -0.36613051
H   5.61096881   3.57932073   0.33133109
H   4.25454002   4.31016618   1.62848557
H   1.95747533   4.72163807   1.05009339
H  -7.56259981  -2.66200531   0.92842372
H  -7.25043241  -4.20758107   1.87749276
H  -6.69507850  -4.05952348   0.03585339
H  -6.92294818  -0.69834082   0.56579794
H  -5.03361858   1.35564772   0.12033028
H  -6.51293623   1.13506614  -0.94821716
H  -4.89299197   0.39401076  -1.50115143
H  -3.48322244   6.32103895   0.73730531
H  -4.23682828   4.93578761   0.87288110
H  -0.35579933   6.51509893   2.08081563
H  -1.49625762   7.28943393   0.80365753
H   0.16953428   6.64843042   0.30011340
H  -3.57087190   5.94611103  -1.77985869
H  -5.19965303   6.05718882  -0.93090102
H  -4.37050586   4.30227355  -1.46571204
H   3.84407187  -4.79637617   1.53242792
H   7.75296502  -2.17530387   1.84625700




