%nproc=4
%Mem=2GB
# td(NStates=1) B3LYP/SVP nosymm

phycocyanobilin-emi Single Point

0 1
O  -4.19192652  -4.84976307   1.83781514
O   3.03503414  -4.84566997   1.08367489
O   6.86774262  -1.50204612   1.95004988
O   3.83875956  -3.13454299  -0.09518956
O   7.45894104  -0.94075123  -0.10695510
O  -3.09233906   2.27766032  -0.41244529
N  -0.19976769  -0.38447007  -0.58367012
N   1.52665090   1.84548075  -0.39851364
N  -3.19716704  -3.12842718   0.72123913
N  -0.86018103   2.78098697   0.00757559
C   0.69055251  -2.31081136  -1.41914210
C   0.96999553  -1.00716538  -0.96912063
C  -0.65702439  -2.52061617  -1.34255432
C  -1.27924818  -1.31972350  -0.79736637
C   3.82658410   1.51287480  -0.23318647
C   2.48896189   0.85561288  -0.61245541
C   2.27815980  -0.47989676  -0.90086787
C   3.55601928   2.86682712  -0.00930750
C   1.67784064  -3.31782118  -2.00449433
C  -5.52717350  -2.71564135   1.32006174
C  -3.50933592  -1.87306830   0.17995936
C   2.09799758   3.03041737  -0.03276635
C  -4.87772776  -1.59381067   0.55276940
C   5.12332864   0.88226087  -0.23468706
C  -2.63510086  -0.96192199  -0.36952026
C  -1.54591457  -3.73433719  -1.66318238
C  -4.34278366  -3.74114139   1.33939145
C   2.10435765  -4.50887826  -1.12938053
C   5.39772490  -0.04406443   0.98616871
C   4.59218239   3.86730178   0.32369008
C   1.24558859   4.05625571   0.34722481
C  -6.86352862  -3.32965595   1.02793378
C  -5.65864361  -0.59897755   0.01739767
C  -0.22068846   3.94706750   0.27912833
C  -1.14838297   5.16899313   0.58111414
C  -2.33803992   4.63038621   0.21845296
C   3.02254852  -3.98930238  -0.05982594
C  -5.47612166   0.47246219  -0.91132548
C   6.65283396  -0.78941190   0.84809026
C  -3.74131779   5.24909478   0.33268859
C  -2.17634666   3.14451028  -0.05162226
C  -0.74641034   6.61052080   0.84233154
C  -4.34719097   5.51574623  -0.96430619
H  -0.64617293   0.46287533  -0.17843020
H   3.10971318  -1.21413402  -1.03083585
H   2.60500653  -2.76980023  -2.37901448
H   1.32332972  -3.42956768  -2.88843508
H  -5.50400818  -2.12623157   2.16743667
H   5.39230358   0.16279365  -0.99210676
H   6.02028358   1.76879978  -0.20147941
H  -2.87332693  -0.04988564  -0.57987767
H   0.60611370   1.84944259  -0.60760507
H  -1.42416828  -4.73752553  -1.02462380
H  -2.65152093  -3.43236878  -1.98705149
H  -1.14836795  -4.05510176  -2.75179658
H  -2.20279585  -3.40374999   0.76994694
H   1.28304261  -5.04588360  -0.72698887
H   3.03239067  -5.00128525  -1.70177541
H   4.64331223  -0.65509025   1.27672501
H   5.61624318   0.74691313   1.80593435
H   4.28628329   4.91206730  -0.26444211
H   5.65709566   3.67222795   0.04662307
H   4.63050551   4.05261310   1.54941673
H   1.79723976   4.90259927   0.75112341
H  -7.76015098  -2.74926427   1.20755450
H  -6.93534781  -4.06598275   1.73622588
H  -6.98963388  -3.81803580  -0.02238066
H  -6.84591760  -0.82435724   0.33138935
H  -5.17872973   1.40254972  -0.34409121
H  -6.55850945   0.58723637  -1.31957685
H  -4.72471819   0.26135129  -1.75565271
H  -3.78432477   6.16951393   1.08214285
H  -4.44573723   4.47052507   0.73744499
H   0.35022234   6.66514760   1.47036510
H  -1.71400978   7.04481886   1.34532252
H  -0.56256658   7.00586173  -0.37531942
H  -3.76989751   6.39837662  -1.41543410
H  -5.40400015   5.74848223  -1.01715043
H  -4.27078341   4.58065081  -1.75165586
H   3.82461677  -4.72115007   1.79758643
H   7.71743664  -2.02610525   1.91212228




