%nproc=4
%Mem=2GB
# td(NStates=1) B3LYP/SVP nosymm

phycocyanobilin-emi Single Point

0 1
O  -4.29660067  -4.89177196   1.76386687
O   2.78729446  -4.84605216   1.05168413
O   7.03557143  -1.38718856   1.93337946
O   3.68749530  -3.08943381  -0.03784257
O   7.69335246  -0.49222327  -0.00213189
O  -3.00703799   2.23908078  -0.31873991
N  -0.21921124  -0.49097311  -0.49086781
N   1.57582516   1.86652551  -0.39808701
N  -3.17881967  -3.09278245   0.78932848
N  -0.73743932   2.84781401  -0.14649937
C   0.65369381  -2.32317479  -1.32131836
C   0.97095831  -1.11460279  -0.83503323
C  -0.80706597  -2.49691901  -1.26286075
C  -1.24170224  -1.31150501  -0.66944939
C   3.78748441   1.52004669  -0.26370768
C   2.50384067   0.84917246  -0.50761887
C   2.22947967  -0.45238697  -0.82948808
C   3.60496161   2.82759381   0.02821636
C   1.56930805  -3.34536729  -2.02532145
C  -5.51293376  -2.77997632   1.27706061
C  -3.54746195  -1.89539814   0.20401713
C   2.11964589   3.07234250  -0.07960098
C  -4.96385841  -1.60979027   0.64440606
C   5.11025357   0.84860358  -0.31828785
C  -2.59247225  -0.99174221  -0.26893629
C  -1.62107171  -3.67174252  -1.78041803
C  -4.28918630  -3.80937628   1.28088291
C   2.06990607  -4.55177352  -1.25724830
C   5.41427571  -0.08043533   0.85405269
C   4.58670597   3.85999475   0.51352097
C   1.30135539   4.20254670   0.22091342
C  -6.85992434  -3.54716648   0.70196815
C  -5.84215231  -0.63536593   0.15044175
C  -0.10513735   3.96524836   0.14902137
C  -1.14355913   5.09776571   0.40163412
C  -2.40702548   4.53234169   0.29351441
C   2.87093670  -4.08691360   0.01554566
C  -5.53286649   0.66275001  -0.62076519
C   6.82847047  -0.64037832   0.81107818
C  -3.70400204   5.14316039   0.33836261
C  -2.09066603   3.10698380  -0.12752886
C  -0.70074898   6.51654183   0.73189759
C  -4.17417614   5.49055438  -1.07057344
H  -0.29523198   0.58164636  -0.08112242
H   2.97991631  -1.40847918  -0.91450671
H   2.43436531  -2.91880868  -2.38685568
H   1.09974901  -3.77436834  -2.86474494
H  -5.78557930  -2.67224369   2.42695975
H   5.19025334   0.27712244  -1.19074488
H   6.02499002   1.49458140  -0.57720461
H  -3.04866898  -0.00502675  -0.45955113
H   0.55125011   1.82268650  -0.58504976
H  -1.55656064  -4.75285451  -1.29939547
H  -2.71342743  -3.41998711  -1.72275723
H  -1.16779689  -3.92260973  -2.87600429
H  -2.30680645  -3.63778940   0.74382993
H   1.27511006  -5.34178330  -0.99477418
H   2.89231254  -5.10268331  -1.92724100
H   4.52144415  -0.88671364   0.88378077
H   5.25314124   0.31486512   1.97302326
H   4.41311502   4.79352680  -0.08893682
H   5.62147367   3.39770392   0.47040381
H   4.56012464   3.90941159   1.69526501
H   1.73443425   5.20446178   0.51000900
H  -7.84908757  -2.93857624   1.15125842
H  -6.89387291  -4.32681776   1.42890829
H  -6.83992906  -3.65733907  -0.38082406
H  -6.93417198  -0.74701302   0.20079059
H  -4.46177050   1.05831969  -0.30892637
H  -6.52410076   1.40893828  -0.51522825
H  -5.10771461   0.34402309  -1.84367458
H  -3.76808244   5.97820446   1.03397648
H  -4.27397988   4.38662278   0.99143727
H   0.11855837   6.68856687   1.62909601
H  -1.57722149   7.33353159   0.97843452
H  -0.34664702   7.00413794   0.02078527
H  -3.47613685   6.24398017  -1.52742929
H  -5.24244172   6.01304480  -1.09474710
H  -4.27078010   4.71889410  -1.74363751
H   3.36544626  -4.30615555   1.77704821
H   7.90981478  -1.71903134   1.65570493




