%NProcShared=4
%Chk=chlorophyll-b-s0-geom-freq-wTunado.chk
%Mem=6GB
#n iop(3/107=0140000000,3/108=0140000000) CAM-B3LYP/6-31G(d,p) Opt Freq=savenormalmodes

 chlorophyll-b-s0-geom-freq-wTunado

0 1
Mg        -3.05082       -1.28696       -0.52119
C         -3.79837        2.05892        0.01563
C         -1.92060       -0.50230       -3.63303
C         -2.25295       -4.56927       -0.98692
C         -4.28026       -2.02300        2.66199
N         -2.88456        0.55158       -1.63856
C         -3.23793        1.81537       -1.22599
C         -2.94322        2.85270       -2.30107
C         -2.48453        1.98422       -3.50124
C         -2.41275        0.58114       -2.90836
C         -3.42865        2.07587       -4.70910
C         -1.94017        3.94914       -1.88638
C         -0.61075        3.43437       -1.33125
C          0.28809        4.55473       -0.84396
O         -0.10586        5.62722       -0.45167
O          1.58033        4.18262       -0.87601
N         -2.24961       -2.35643       -2.05545
C         -1.83279       -1.85878       -3.24975
C         -1.29540       -2.93068       -4.07654
C         -1.42466       -4.09739       -3.34646
C         -2.01223       -3.71722       -2.05714
C         -0.74527       -2.80102       -5.46498
C         -1.03119       -5.42067       -3.82887
C         -1.52879       -6.62039       -3.48224
N         -3.23209       -3.00707        0.64590
C         -2.83377       -4.24602        0.26698
C         -3.10539       -5.19423        1.33517
C         -3.69216       -4.47057        2.37455
C         -3.75593       -3.10178        1.92021
C         -2.84348       -6.63220        1.32873
O         -2.34610       -7.27105        0.41845
C         -4.13029       -4.97049        3.72345
C         -3.04548       -4.85106        4.80898
N         -3.85476       -0.26207        1.02551
C         -4.33957       -0.68613        2.26107
C         -4.87599        0.44413        3.00548
C         -4.68416        1.53829        2.16613
C         -4.06163        1.05402        0.98092
C         -5.49766        0.42959        4.36458
C         -4.89423        2.97969        2.03899
O         -5.42012        3.76381        2.79376
C         -4.24558        3.38036        0.63816
C         -5.23597        4.19051       -0.17885
O         -6.00747        3.74161       -0.99342
O         -5.15099        5.49320        0.12675
C         -6.09807        6.35870       -0.49900
C          2.58465        5.11859       -0.39649
C          3.17162        4.65372        0.90263
C          4.23857        3.84773        1.06064
C          5.04905        3.28746       -0.07888
C          4.68919        3.44106        2.45948
C          3.68734        2.55855        3.23370
C          3.33675        1.21005        2.58833
C          4.47472        0.17570        2.45783
C          5.03702       -0.23772        3.82455
C          3.97199       -1.03884        1.64787
C          4.99608       -2.13784        1.32562
C          6.16278       -1.68734        0.43560
C          7.08544       -2.83160       -0.03495
C          7.89950       -3.43944        1.11698
C          7.97748       -2.46692       -1.24710
C          9.19948       -1.55254       -1.04303
C          8.91481       -0.06314       -0.80489
C         10.14456        0.85971       -0.91552
C          9.72400        2.33362       -0.84728
C         11.21325        0.55143        0.14201
H         -1.55872       -0.26700       -4.63502
H         -1.96715       -5.61271       -1.09472
H         -4.67813       -2.26011        3.64989
H         -3.88949        3.35895       -2.55140
H         -1.47452        2.28212       -3.83315
H         -3.47247        3.11072       -5.08553
H         -4.45095        1.77147       -4.43331
H         -3.09456        1.43107       -5.53672
H         -2.39541        4.61750       -1.14070
H         -1.74859        4.58689       -2.76657
H         -0.05093        2.82627       -2.05775
H         -0.78986        2.77828       -0.46005
H         -0.68508       -1.75453       -5.79386
H         -1.36621       -3.34228       -6.19881
H          0.27163       -3.22309       -5.53619
H         -0.25086       -5.40520       -4.59968
H         -2.33814       -6.74597       -2.76054
H         -1.13410       -7.53262       -3.93717
H         -3.15641       -7.16289        2.26388
H         -4.44400       -6.02314        3.64424
H         -5.02874       -4.41761        4.04423
H         -2.72691       -3.80567        4.94466
H         -2.15241       -5.43703        4.54108
H         -3.41915       -5.22244        5.77661
H         -4.94419        1.08628        5.05603
H         -5.52979       -0.57768        4.80311
H         -6.52830        0.81917        4.32623
H         -3.40133        4.04476        0.88849
H         -5.88079        7.36764       -0.12797
H         -7.12529        6.06767       -0.23265
H         -5.99752        6.32350       -1.59451
H          2.10471        6.09941       -0.28225
H          3.33398        5.17804       -1.19777
H          2.64435        4.99676        1.80093
H          5.04145        2.18422       -0.04677
H          6.10718        3.58982        0.01364
H          4.68779        3.59258       -1.06964
H          4.87041        4.35205        3.05540
H          5.66320        2.92877        2.39460
H          2.75222        3.12821        3.36769
H          4.08244        2.39916        4.25158
H          2.91167        1.39887        1.58660
H          2.51970        0.74904        3.17375
H          5.29600        0.64379        1.88467
H          5.87834       -0.94079        3.72581
H          4.26101       -0.73184        4.43523
H          5.40778        0.62707        4.39653
H          3.54394       -0.66863        0.69814
H          3.12711       -1.49410        2.19748
H          4.46335       -2.96216        0.81795
H          5.38262       -2.57193        2.26298
H          6.75887       -0.92472        0.96447
H          5.74733       -1.18072       -0.45492
H          6.41410       -3.62798       -0.40984
H          8.56068       -4.24465        0.75644
H          7.24788       -3.87411        1.89043
H          8.53460       -2.68446        1.61035
H          7.33590       -2.03455       -2.03716
H          8.35343       -3.41915       -1.66200
H          9.82001       -1.63429       -1.95440
H          9.82661       -1.95314       -0.22889
H          8.45422        0.08899        0.18725
H          8.16087        0.27302       -1.54011
H         10.59773        0.68723       -1.91114
H         10.58821        3.00592       -0.97406
H          9.26247        2.56810        0.12785
H          8.98884        2.58089       -1.63072
H         11.59523       -0.47783        0.06012
H         10.80637        0.67731        1.16091
H         12.07550        1.23107        0.04421
