--Link1--
%Mem=30GB
%CPU=0-29
%OldChk=b-carotene-s0.chk
%Chk=b-carotene-charged.chk
#n wB97XD/Def2TZVP Opt Geom=Checkpoint Guess=Read

b-carotene-charged

  1  2

