--Link1--

%NProcShared=6
%OldChk=b-carotene-s0.chk
%Chk=b-carotene-charged-sp.chk
%Mem=6GB
#n wB97XD/Def2TZVP Geom=Checkpoint Guess=Read

 b-carotene-charged-sp

1 2
