--Link1--
%Mem=7GB
%CPU=0-6
%OldChk=b-carotene-s0.chk
%Chk=b-carotene-s0-sp.chk
#n wB97XD/Def2TZVP Geom=Checkpoint 

b-carotene-s0-sp

  1  2

