%OldChk=cla-s0-wb97-tzvp.chk
%NProcShared=4
%Mem=3GB
#n wB97/ChkBasis Td Geom=Checkpoint
%Chk=cla-td-wb97-tzvp.chk


 cla-td-wb97-tzvp

0 1
