%NProcShared=4
%Chk=zeaxanthin-s0-geom.chk
#n CAM-B3LYP/6-31G(d) Opt

 zeaxanthin-s0-geom

0 1
O         14.81774       -2.53058       -0.32410
O        -15.01743        1.91563        0.53140
C         11.13837       -1.84490        0.17523
C        -12.61408       -1.00054        0.55388
C         12.53505       -2.48763        0.42063
C        -13.96444       -0.24195        0.39083
C         13.58301       -1.88372       -0.48771
C        -13.78254        1.25127        0.58671
C         11.19996       -0.28698        0.07970
C        -11.44307       -0.28964       -0.18412
C         13.73992       -0.41608       -0.10626
C        -12.89241        1.76761       -0.54171
C         12.42748        0.34994       -0.00979
C        -11.62050        0.96152       -0.74162
C         10.26858       -2.30747        1.37535
C         10.51856       -2.40346       -1.12964
C        -12.24204       -1.11991        2.05045
C        -12.87034       -2.42534       -0.00064
C          9.83770        0.40110        0.08113
C        -10.13183       -1.04065       -0.21785
C         12.62322        1.84519       -0.03430
C        -10.63293        1.64782       -1.66442
C          9.51536        1.71662        0.10057
C         -8.90536       -0.47509       -0.21031
C          8.11800        2.27850        0.09358
C         -7.62469       -1.25319       -0.19706
C          7.99277        3.78779        0.12219
C         -7.67494       -2.76979       -0.21927
C          6.99925        1.50536        0.06316
C         -6.46703       -0.54410       -0.16845
C          5.61499        2.05097        0.05512
C         -5.08878       -1.10482       -0.15287
C          4.55208        1.22628        0.02528
C         -4.02331       -0.28250       -0.12487
C          3.13127        1.69562        0.01417
C         -2.60250       -0.75313       -0.10866
C          2.84356        3.18502        0.03625
C         -2.31481       -2.24265       -0.12466
C          2.16235        0.74586       -0.01595
C         -1.63310        0.19631       -0.08045
C          0.69433        0.98667       -0.03310
C         -0.16511       -0.04476       -0.06183
H         12.87209       -2.30880        1.46837
H         12.47412       -3.59011        0.28098
H        -14.71552       -0.65105        1.10282
H        -14.37374       -0.38620       -0.63613
H         13.26671       -1.95428       -1.55210
H        -13.29320        1.46033        1.56393
H         14.26098       -0.30512        0.87043
H         14.38892        0.03065       -0.89206
H        -13.44106        1.76959       -1.50965
H        -12.63945        2.82091       -0.28918
H         10.26248       -3.41721        1.44766
H          9.20824       -2.00032        1.29817
H         10.67173       -1.89986        2.32765
H         11.10231       -2.10046       -2.02201
H         10.47692       -3.51363       -1.10038
H          9.48120       -2.04030       -1.27896
H        -12.04675       -0.12784        2.50548
H        -11.32340       -1.73096        2.18187
H        -13.05842       -1.61202        2.62184
H        -13.73658       -2.89330        0.51644
H        -12.01846       -3.11434        0.15385
H        -13.09524       -2.38559       -1.08836
H          9.01064       -0.27804        0.05781
H        -10.17186       -2.11454       -0.15313
H         12.13310        2.28025       -0.92983
H         12.25906        2.29104        0.91438
H         13.69709        2.12182       -0.10590
H        -11.15941        1.92176       -2.60314
H         -9.79702        1.01773       -2.01134
H        -10.25097        2.57793       -1.19371
H         14.75294       -3.39724       -0.80444
H        -15.47090        1.74955        1.39902
H         10.26982        2.46828        0.13025
H         -8.82056        0.60368       -0.17116
H          8.98070        4.29332        0.14535
H          7.45917        4.14100       -0.78554
H          7.43508        4.10458        1.02889
H         -8.22489       -3.13283        0.67418
H         -8.20496       -3.10529       -1.13530
H         -6.69563       -3.27428       -0.21483
H          7.07029        0.42786        0.04257
H         -6.53683        0.54181       -0.15576
H          5.46323        3.12259        0.07316
H         -4.92593       -2.17019       -0.16406
H          4.73619        0.15411        0.00781
H         -4.20445        0.79033       -0.11384
H          3.28088        3.62955        0.95475
H          1.77598        3.45749        0.02653
H          3.30570        3.66119       -0.85380
H         -2.77873       -2.71553        0.76622
H         -2.74994       -2.69062       -1.04252
H         -1.24729       -2.51516       -0.11125
H          2.47328       -0.29696       -0.02958
H         -1.94352        1.23931       -0.07067
H          0.28693        1.98820       -0.02346
H          0.24230       -1.04629       -0.07141

