--Link1--
#n PBE1PBE/Gen Opt Freq=savenormalmodes

zeaxanthin-s0-geom-freq-TZVP

  0  1
O,14.714517520408164,-2.131783112244898,-0.437546
O,-14.695838479591837,2.0739318877551023,0.711432
C,11.452845520408165,-1.052073112244898,1.179524
C,-12.321775479591837,-0.890925112244898,0.680017
C,12.945763520408164,-1.364576112244898,1.046611
C,-13.645873479591836,-0.12117911224489798,0.635977
C,13.329939520408164,-1.845340112244898,-0.33332
C,-13.461842479591835,1.376094887755102,0.725774
C,10.965913520408163,-0.22726211224489795,-0.016108
C,-11.266564479591835,-0.216538112244898,-0.202831
C,13.018679520408163,-0.767161112244898,-1.341266
C,-12.667243479591836,1.8409308877551018,-0.467184
C,11.671039520408163,-0.125960112244898,-1.160725
C,-11.455386479591835,1.001418887755102,-0.748913
C,11.261960520408163,-0.26482711224489797,2.479642
C,10.647107520408163,-2.354798112244898,1.277533
C,-11.802024479591836,-0.9722161122448979,2.120846
C,-12.611565479591837,-2.316333112244898,0.194451
C,9.658943520408164,0.40398488775510205,0.177201
C,-10.038723479591836,-0.9894851122448979,-0.4081
C,11.206585520408163,0.6113748877551021,-2.379223
C,-10.520888479591836,1.6486718877551019,-1.724789
C,9.333362520408164,1.6742078877551019,-0.10973
C,-8.788121479591837,-0.509850112244898,-0.286153
C,8.027737520408163,2.291796887755102,0.075792
C,-7.564558479591837,-1.2536881122448982,-0.481381
C,8.058148520408164,3.764158887755102,0.352601
C,-7.660075479591837,-2.6920081122448978,-0.879752
C,6.886329520408163,1.567571887755102,-0.021201
C,-6.385067479591837,-0.604354112244898,-0.294943
C,5.548222520408163,2.029758887755102,0.177496
C,-5.062121479591837,-1.1213711122448982,-0.438357
C,4.4598465204081625,1.240260887755102,0.01564
C,-3.9549124795918367,-0.368828112244898,-0.228719
C,3.0911115204081634,1.6391088877551019,0.187979
C,-2.5929414795918366,-0.8010831122448979,-0.361419
C,2.806387520408163,3.0512348877551023,0.594217
C,-2.3280504795918366,-2.2173451122448977,-0.766173
C,2.1135645204081634,0.714642887755102,-0.034972
C,-1.6032064795918366,0.10483788775510201,-0.116559
C,0.7061535204081631,0.893900887755102,0.058299
C,-0.19694347959183678,-0.088386112244898,-0.198332
H,13.530948520408163,-0.463104112244898,1.261815
H,13.221160520408164,-2.111530112244898,1.801916
H,-14.289321479591836,-0.477856112244898,1.449923
H,-14.170034479591836,-0.336322112244898,-0.302526
H,12.750209520408164,-2.7448681122448977,-0.585337
H,-12.908436479591836,1.626000887755102,1.642535
H,13.801069520408165,0.001278887755102015,-1.268412
H,13.100065520408164,-1.172574112244898,-2.354854
H,-13.329977479591836,1.843719887755102,-1.343592
H,-12.359864479591836,2.883906887755102,-0.329624
H,11.677437520408164,-0.827074112244898,3.321232
H,10.207802520408164,-0.07484911224489799,2.691282
H,11.772031520408163,0.700350887755102,2.430367
H,10.765296520408164,-2.972785112244898,0.385601
H,10.973085520408164,-2.9362321122448978,2.145336
H,9.580322520408163,-2.156222112244898,1.402229
H,-11.637281479591836,0.019019887755102015,2.548423
H,-10.850028479591836,-1.506696112244898,2.157692
H,-12.515977479591836,-1.5060231122448982,2.755478
H,-13.462011479591837,-2.724318112244898,0.748057
H,-11.768425479591837,-2.990175112244898,0.357591
H,-12.864911479591836,-2.3284991122448977,-0.868771
H,8.902071520408164,-0.206928112244898,0.666378
H,-10.161253479591837,-2.045999112244898,-0.629597
H,10.153475520408163,0.881699887755102,-2.335546
H,11.784533520408164,1.5314668877551019,-2.525523
H,11.376401520408164,-6.771122448979844E-4,-3.270618
H,-11.099945479591836,2.1015408877551023,-2.536889
H,-9.804108479591836,0.950181887755102,-2.15279
H,-9.959660479591836,2.466128887755102,-1.257888
H,14.928058520408165,-2.8200231122448978,0.197854
H,-15.214690479591836,1.783864887755102,1.46613
H,10.120103520408163,2.336161887755102,-0.466675
H,-8.661384479591836,0.531756887755102,-0.001059
H,8.677252520408164,4.273796887755102,-0.392512
H,7.0720935204081625,4.224948887755102,0.337184
H,8.513269520408164,3.967559887755102,1.327628
H,-8.207397479591837,-3.267347112244898,-0.126395
H,-8.208182479591835,-2.798811112244898,-1.820734
H,-6.683794479591837,-3.1552291122448977,-1.006345
H,6.985423520408163,0.521083887755102,-0.301383
H,-6.446687479591837,0.44279388775510203,-0.002907
H,5.401564520408163,3.063271887755102,0.473224
H,-4.940750479591837,-2.158833112244898,-0.731544
H,4.620509520408163,0.20421988775510203,-0.277561
H,-4.096200479591837,0.669842887755102,0.06521
H,3.291693520408163,3.285375887755102,1.546437
H,1.7424385204081634,3.247289887755102,0.706617
H,3.1993365204081634,3.7542358877551023,-0.146557
H,-2.773504479591837,-2.914590112244898,-0.050175
H,-2.774632479591837,-2.431829112244898,-1.741852
H,-1.2653304795918368,-2.4406701122448977,-0.830186
H,2.442408520408163,-0.281329112244898,-0.327044
H,-1.9215044795918368,1.1051658877551018,0.172482
H,0.32088752040816326,1.868773887755102,0.344197
H,0.18391152040816322,-1.0645611122448981,-0.485726

