%nproc=4
%Mem=2GB
# td=(NStates=1) CAM-B3LYP/6-31G(d,p) 

TD

0 1
 8  14.82877840284029 -2.10822375547555 -0.15678260126013
 8 -14.61379644364436  2.03942924802480  1.21889142014201
 6  11.16804915091509 -1.49271182328233  1.12392855385539
 6 -12.54688985298530 -1.03414503240324  0.64016766076608
 6  12.75792935893589 -1.86803609970997  1.20401529352935
 6 -13.74939165816582 -0.15591361126113  0.68882169416942
 6  13.47652569156916 -1.87955027712771 -0.21897544254425
 6 -13.40431972497250  1.27353601470147  1.14244549554955
 6  10.98836816381638 -0.28308593559356  0.13021972897290
 6 -11.41321768576858 -0.29337034393439 -0.14375205120512
 6  13.36907739873987 -0.45111359645965 -0.80448320232023
 6 -12.63411584958496  1.83008601570157  0.01153180018002
 6  11.90839670867087  0.13134351725173 -0.83256589958996
 6 -11.52699329432943  1.00301693079308 -0.48313030903090
 6  10.86163720472047 -0.98008344934493  2.51549493349335
 6  10.38887950795080 -2.62304007200720  0.64581797179718
 6 -12.00214202020202 -1.55553524542454  2.07346347734773
 6 -12.81329782478248 -2.26911813371337 -0.29461819981998
 6  9.59247448844884  0.31549050205020  0.14518847884788
 6 -10.16351192319232 -1.12441518341834 -0.43476476147615
 6  11.72681856185619  1.21346652055206 -1.88816080608061
 6 -10.61047933593359  1.68146762386239 -1.37521441144114
 6  9.41714561956196  1.60928717171717  0.06451309130913
 6 -8.91806320332033 -0.57572952185219 -0.46496159815982
 6  8.12040114511451  2.28032401540154  0.02385316031603
 6 -7.65102313631363 -1.20969929782978 -0.66134230323032
 6  7.91181296529653  3.64569342434243  0.56020020402040
 6 -7.66083438043804 -2.61917149404941 -1.03320200520052
 6  6.89608957995800  1.61269021002100 -0.15685817081708
 6 -6.41294399139914 -0.61712997489749 -0.46514543954395
 6  5.54775548954895  1.92786702470247  0.06523349234923
 6 -5.13820236623662 -1.05291236413641 -0.64226110411041
 6  4.42455124112411  1.21067726172617 -0.15523760876088
 6 -3.99655095209521 -0.29279150315032 -0.38551136613661
 6  3.14788227922792  1.65105949694970  0.01038515451545
 6 -2.56290174617462 -0.71660173917392 -0.65869422442244
 6  2.84736630363036  3.04587227922792  0.44309196719672
 6 -2.32558132613261 -2.14970846284628 -1.02269349534954
 6  2.13048213721372  0.63091515551555 -0.33402408240824
 6 -1.56557851785179  0.23754164316432 -0.41661561256126
 6  0.76985381438144  0.95390820482048 -0.24520319231923
 6 -0.18412828282828 -0.04184178417842 -0.48660963096310
 1  13.33484206420642 -0.95931934203420  1.76935262426243
 1  12.92500599959996 -2.81906512061206  1.57002468646865
 1 -14.51987496049605 -0.56433387528753  1.22822374337434
 1 -14.27105060006001  0.03857598569857 -0.21920377637764
 1  13.04164517151715 -2.57344665176518 -0.95535609360936
 1 -12.74245467746775  1.12740672277228  2.24801253525353
 1  14.05764035103510  0.18676125402540 -0.13354853585359
 1  13.74090964796480 -0.29979533663366 -1.90997372837284
 1 -13.45075028402840  2.33194825492549 -0.73291603460346
 1 -12.12706867986799  2.86646166626663  0.58510954695470
 1  11.20066275527553 -1.96762519151915  3.20214491049105
 1  9.86735506250625 -0.67316711571157  2.68864561956196
 1  11.44938868086809 -0.15506437353735  2.87495088108811
 1  10.56706296929693 -2.98916369036904 -0.39391607460746
 1  10.81859086198620 -3.45093373637364  1.36121556155616
 1  9.37272458945895 -2.57321862986299  0.93394011501150
 1 -11.70991267726773 -0.70017251115112  2.65458575557556
 1 -11.06132897189719 -2.22827537143714  2.09499328332833
 1 -12.90581147414741 -1.98933635353535  2.54988556855686
 1 -13.78783923292329 -2.66250494639464  0.29882801380138
 1 -12.05742097709771 -3.07205379427943 -0.22632973497350
 1 -12.88377623662366 -1.98105729762976 -1.17973071507151
 1  8.75732763576358 -0.51595600660066  0.18971609260926
 1 -10.18956372137214 -2.10816788068807 -0.77480128212821
 1  10.63314460646064  1.23132780278028 -2.12120417941794
 1  11.85321115011501  2.31303224612461 -1.50931653965397
 1  12.06156782678268  1.06021687658766 -2.68938162716272
 1 -11.08828322932293  2.48592415651565 -2.09782050305031
 1 -9.72018799679968  1.17472149124912 -1.75965193219322
 1 -9.85647983198320  2.24295694979498 -0.60151330733073
 1  15.09876900490049 -2.89115444254425  0.49338761876188
 1 -15.17462215521552  1.78434573467347  1.95413650965097
 1  10.40560647964797  2.27027393539354  0.22351917691769
 1 -8.60711544754475  0.38500310141014 -0.01157178317832
 1  8.93890157715771  4.26020940294029  0.61110695169517
 1  7.16868325532553  4.35443030403040 -0.11018736473647
 1  7.66669592959296  3.79066013401340  1.64250108810881
 1 -8.00719351335133 -3.28130278817882 -0.14864015301530
 1 -8.68410278127813 -2.74585458835884 -1.68159004800480
 1 -6.80482625462546 -3.01345588548855 -1.38921435543554
 1  6.95728158315832  0.61131434643464 -0.68621649664966
 1 -6.59829680568057  0.28809630473047 -0.13830895589559
 1  5.62413011801180  2.85906157815782  0.51428793779378
 1 -5.01223169416942 -2.05381305930593 -0.88845499549955
 1  4.59828302130213  0.15294004000400 -0.62840490849085
 1 -4.06114751875187  0.73499287128713 -0.16874559355936
 1  3.46288191619162  3.32524441444144  1.36917015801580
 1  1.81615987698770  3.20024100610061  0.49396399839984
 1  3.23865924592459  3.86667329232923 -0.47423048104810
 1 -2.95192630763076 -2.75855814781478 -0.20141780678068
 1 -2.58508722172217 -2.46817387938794 -2.12684142614261
 1 -1.32598298329833 -2.28851640164016 -0.62680122312231
 1  2.60119148214821 -0.33715699669967 -0.90417662966297
 1 -1.74905952895290  1.19098734273427 -0.22006591359136
 1  0.30165046404640  1.97930335733573  0.27032904290429
 1 -0.14321253625363 -0.94482464646465 -1.01951362536254

