%nproc=4
%Mem=2GB
# td=(NStates=1) CAM-B3LYP/6-31G(d,p) 

TD

0 1
 8  14.68446397139714 -2.20369330243024 -0.20771769476948
 8 -14.92458752275227  1.83374867996800  0.90854038503850
 6  11.12933527952795 -1.50419297139714  1.01429759075908
 6 -12.34692985698570 -1.07527914581458  0.63389703370337
 6  12.59884345034503 -1.85636493259326  1.07698259025903
 6 -13.67424414341434 -0.32427044694469  0.59436224822482
 6  13.30566860586059 -1.89397171927193 -0.25993953895390
 6 -13.63654294729473  1.12063072417242  0.86468771977198
 6  10.84202352935294 -0.22145977297730  0.03593030003000
 6 -11.37172353635363 -0.30966197309731 -0.07685536153615
 6  13.20918140914091 -0.52410089518952 -0.90676343034303
 6 -12.77808024602460  1.87500050715071 -0.18284763776378
 6  11.80384625362536  0.09916029892989 -0.88110075307531
 6 -11.46915751075107  0.98846547564756 -0.44657665366537
 6  10.64548558955896 -1.24802024302430  2.35628901290129
 6  10.33012363236324 -2.68120588858886  0.58929231923192
 6 -11.94781658765877 -1.22306199809981  2.05643177417742
 6 -12.54456095109511 -2.40273149504951 -0.13006174417442
 6  9.55321056205620  0.35201415441544  0.11654561456146
 6 -9.97859343134313 -0.98693143504350 -0.37556884188419
 6  11.63290917091709  1.14167934183418 -1.88802079207921
 6 -10.51468975697570  1.84157363446345 -1.25994288428843
 6  9.36836074107411  1.73344958795880  0.07326396639664
 6 -8.64483588058806 -0.47807975687569 -0.38271337333733
 6  8.06761586658666  2.26972295529553  0.14399517451745
 6 -7.51538957295730 -1.24036236413641 -0.51945811481148
 6  7.86658844284428  3.74327318231823  0.54993917791779
 6 -7.53009130613061 -2.64981455835584 -0.90537922292229
 6  6.95237520852085  1.49303824482448 -0.16104858985899
 6 -6.27547024402440 -0.52672093399340 -0.38565749074907
 6  5.69636035003500  2.02808704670467  0.01205817481748
 6 -4.97048559455946 -1.16145321822182 -0.61294817281728
 6  4.57712649864986  1.27509370337034 -0.07256934193419
 6 -3.88434973197320 -0.28250047404740 -0.48401121612161
 6  3.24895238623862  1.77149154015402  0.11625574157416
 6 -2.56475193119312 -0.72294237323732 -0.60400875587559
 6  2.97655922292229  3.08957664966497  0.64866252425243
 6 -2.36755552355236 -2.20647413941394 -0.95904713071307
 6  2.07614670367037  0.93383544754475 -0.22050273027303
 6 -1.52706466646665  0.23864175317532 -0.35286923792379
 6  0.77836466546655  1.06291910591059 -0.01730040204020
 6 -0.16967683768377  0.02152455245525 -0.29945091509151
 1  13.21829040904090 -1.10344375447545  1.66170185918592
 1  12.53266676567657 -2.79261247534754  1.61721940594059
 1 -14.32453542654265 -0.84958240014001  1.30337125812581
 1 -13.95471896689669 -0.15749362126213 -0.52992484848485
 1  12.70735174217422 -2.68220752785279 -0.86933749174918
 1 -13.17761819381938  1.27639162126213  1.84511224522452
 1  14.03933852085209  0.09842242014201 -0.56480166116612
 1  13.43721927892789 -0.80583594069407 -1.82337506850685
 1 -13.44853006200620  1.92454751485149 -1.03808655165517
 1 -12.26534250725073  2.80010503060306  0.08927996399640
 1  10.99716240524053 -1.82719114811481  3.14799949594959
 1  9.53861218821882 -0.89709950895090  2.42429918491849
 1  10.93111685368537 -0.43082194929493  2.61682506850685
 1  10.72109837283728 -3.09095386938694 -0.26790347334733
 1  10.47296629952995 -3.48562720572057  1.17437687768777
 1  9.17530484748475 -2.60883219121912  0.67544426542654
 1 -11.77586927292729 -0.35151764566457  2.67003730073007
 1 -10.95496833583358 -1.78243078697870  1.97678146214621
 1 -12.55618651165116 -1.86668408830883  2.78179875987599
 1 -13.35497594659466 -2.85821451735174  0.58289642064206
 1 -11.60728596359636 -3.00443703260326 -0.54683178517852
 1 -13.18544640364036 -2.20034922682268 -1.16090883288329
 1  8.70527243024303 -0.28206261726173  0.25888300930093
 1 -10.11141590659066 -2.06450351425143 -0.47905170717072
 1  10.57247853985398  1.47504217421742 -2.01612367136714
 1  12.29855568456846  2.07346828972897 -1.60531613961396
 1  12.08447011701170  0.71606246114611 -2.67590027902790
 1 -11.17400180118012  2.43750931503150 -2.04743546454645
 1 -9.89726570457046  1.23718773787379 -1.81546751375138
 1 -9.97493167716772  2.47153980808081 -0.47493064906491
 1  14.71733086108611 -2.97189251635164  0.58376665666567
 1 -15.50312500550055  1.31676897699770  1.36179727572757
 1  10.18251417041704  2.51200810881088  0.00521734673467
 1 -8.59142387838784  0.42723732483248  0.12260163416342
 1  8.99949763676367  4.19498288028803  0.40588642964296
 1  7.14713110011001  4.28841370237024 -0.09064541054105
 1  7.56143540354035  3.69127019501950  1.69588642664266
 1 -8.42139493349335 -3.12362702060206 -0.33694898389839
 1 -8.06170054105410 -2.70029003190319 -1.92353424242424
 1 -6.65887165916592 -3.08113265316532 -0.96565199919992
 1  7.18727458245825  0.43410662566257 -0.51908978397840
 1 -6.34857183318332  0.57789528462846 -0.15185031003100
 1  5.72399010401040  3.17195286728673  0.07543405240524
 1 -4.96338680968097 -2.08399607760776 -0.94915106510651
 1  4.47761095409541  0.41530627662766 -0.56941900990099
 1 -4.03712511651165  0.68847821982198 -0.38784750375037
 1  3.74491011901190  3.40677256725673  1.56197943894389
 1  1.91584984598460  3.20261124312431  0.92470707270727
 1  3.10588596859686  3.92629925492549 -0.09837289528953
 1 -3.12416353135313 -2.93099539153915 -0.42164982998300
 1 -2.53391210421042 -2.68845590759076 -2.14370311231123
 1 -1.21613199819982 -2.47600515051505 -0.52084062706271
 1  2.16070743374337 -0.13856713771377 -0.68975518751875
 1 -2.01454607760776  1.28020626462646 -0.03142704970497
 1  0.31681198019802  1.97618304530453  0.41786379637964
 1  0.47396918191819 -0.98200836483648 -0.28877055105511

