%nproc=4
%Mem=2GB
# td=(NStates=1) CAM-B3LYP/6-31G(d,p) 

TD

0 1
 8  14.65920144514451 -2.40008294139414 -0.29439636263626
 8 -14.86249131313131  1.83036834193419  0.77173670467047
 6  11.10592293829383 -1.51942449454945  0.77415357635764
 6 -12.33536870087009 -1.07794941284128  0.43633727772777
 6  12.63189675567557 -1.93134243034303  0.88095298729873
 6 -13.67616433543354 -0.25367338723872  0.56976978897890
 6  13.34538257725773 -2.00199252135214 -0.38302184718472
 6 -13.53469276227623  1.23205186628663  0.77017826882688
 6  10.93659298629863 -0.19697732473247 -0.04544783778378
 6 -11.35261162516252 -0.36543755065507 -0.29686736273627
 6  13.25883637463746 -0.61152963806381 -0.98932168616862
 6 -12.72208464646465  1.82649565666567 -0.33576292929293
 6  11.98496436543654  0.19087947084708 -0.87127977097710
 6 -11.51234182918292  0.95766239533953 -0.65378737473747
 6  10.78622966396640 -1.22192763376338  2.29444282828283
 6  10.30837145714571 -2.75817358535854  0.26956034603460
 6 -11.83064487048705 -1.26707639953995  1.92671880288029
 6 -12.67805430043004 -2.43297451935194 -0.14742348034803
 6  9.67498273927393  0.46059501250125  0.17691165116512
 6 -10.03851942394239 -0.98817155905591 -0.44687597259726
 6  11.72897877787779  1.33409858375838 -1.75769775977598
 6 -10.50808909690969  1.69300877797780 -1.56981387138714
 6  9.27649155415542  1.76688293129313  0.05583222322232
 6 -8.76071746874688 -0.44542649154915 -0.23690879287929
 6  7.95481458645865  2.36395237823782  0.22713348834883
 6 -7.54419245324532 -1.18591691959196 -0.43199936893689
 6  7.94797658165817  3.86995585058506  0.40461464546455
 6 -7.62795109210921 -2.61411098799880 -0.90602928792879
 6  6.92493246424642  1.53130207120712  0.08806632163216
 6 -6.40177287428743 -0.57057531943194 -0.11994091909191
 6  5.64226494049405  2.02996723472347  0.25128209720972
 6 -5.03582212821282 -1.02364943784378 -0.30061693969397
 6  4.46528531453145  1.30002619661966  0.08545646064606
 6 -3.94197549454945 -0.31114333833383 -0.22961577657766
 6  3.12053954495450  1.73728811981198  0.12773688968897
 6 -2.57492294829483 -0.77939801880188 -0.27063541854185
 6  2.85183675067507  3.12440013201320  0.48031568956896
 6 -2.32647141514151 -2.14979847184718 -0.62659388538854
 6  2.11382047104710  0.81461352535254 -0.07525820582058
 6 -1.52709466946695  0.15034292329233 -0.02747669866987
 6  0.79540636963696  1.00137295129513 -0.00562923492349
 6 -0.15425529552955  0.01993439343934 -0.19949091909191
 1  13.42196077607761 -1.26341975207521  1.54034972397240
 1  12.82635613461346 -3.03430664476448  1.23777146114611
 1 -14.34711768476848 -0.89056649854985  1.29592051305130
 1 -14.23646714171417 -0.37977584948495 -0.37348920492049
 1  12.86369737673767 -2.72331163826383 -1.23636419441944
 1 -13.00497092909291  1.33793777587759  1.85685341934193
 1  14.19146373337334  0.14316689458946 -0.55146032703270
 1  13.54371992899290 -0.66155151225122 -1.97792052305231
 1 -13.29826503550355  1.78110317041704 -1.19044178717872
 1 -12.46899287228723  2.81586660676068 -0.32449141314131
 1  11.05703839283928 -2.06739516851685  2.88459315531553
 1  9.76216454345434 -0.99080887988799  2.62438919391939
 1  11.39973371537154 -0.59069793689369  2.64500788678868
 1  10.56047231023102 -3.15052982698270 -0.72466914991499
 1  10.15547455035503 -3.34263290629063  1.12154159415942
 1  9.42307962496250 -2.22633394139414 -0.11049432843284
 1 -11.50877256325633 -0.46653914781478  2.47715801280128
 1 -10.87065990499050 -1.79000154405441  1.75329911391139
 1 -12.57725861886189 -1.79552697259726  2.39314989498950
 1 -13.73191364036404 -2.92373106900690  0.02298042904290
 1 -11.91899713471347 -3.18042463136314 -0.10563766576658
 1 -12.69681754075408 -2.31795098699870 -1.33869661166117
 1  9.02444434743474 -0.23172758375838  0.45478259925993
 1 -10.11446621162116 -1.91404846874688 -0.52346614861486
 1  10.73501479347935  1.60853552355236 -1.91175323432343
 1  12.27806363536354  2.25920686358636 -1.58956456445644
 1  12.12713438343834  1.17205806070607 -2.64303699269927
 1 -11.16146054705471  2.44881044514451 -2.20626134713471
 1 -9.90330630863086  0.85593961306131 -2.21453742074207
 1 -9.85499968396840  2.41721437553755 -1.14727788378838
 1  14.57122625062506 -3.39445477257726 -0.33644536453645
 1 -15.27939263226322  1.79020632073207  1.65341643764376
 1  10.04037995699570  2.63520042804280 -0.26628980398040
 1 -8.82506724272427  0.64688929002900  0.16513588758876
 1  8.85831351835184  4.20908429042904  0.47533337433743
 1  7.40131651865187  4.23235809680968 -0.35653199919992
 1  7.35014427442744  4.20292136013601  1.35957279527953
 1 -8.18916171017102 -3.23360801870187 -0.22782807180718
 1 -8.09321369236924 -2.56362636553655 -1.90329221822182
 1 -6.57772354435444 -3.14406894679468 -0.89109454345435
 1  6.92151800680068  0.28057127212721  0.14823694869487
 1 -6.38377535353535  0.63655115021502  0.08603347834784
 1  5.26534423942394  3.01335700770077  0.60990749974998
 1 -4.68916938793879 -2.15089276727673 -0.49242539253925
 1  4.75140833383338  0.29250399639964  0.08968690069007
 1 -4.12781418541854  0.60619999199920  0.07388866986699
 1  3.08371399939994  3.51619350935094  1.55724896589659
 1  1.93561182218222  3.24844582658266  0.10057465946595
 1  3.47961334133413  3.97841446644664 -0.10335339333933
 1 -2.51016213121312 -2.89476176817682  0.13840617561756
 1 -2.87527624062406 -2.36426348834883 -1.42953169516952
 1 -1.20876126112611 -2.19780733073307 -0.71196973997400
 1  2.47903926692669 -0.27959124012401 -0.21764797679768
 1 -1.77450207320732  1.12992123612361  0.16235232823282
 1  0.23786408540854  1.90820624762476  0.28701071107111
 1  0.21580336533653 -1.00956112011201 -0.43642531653165

