%nproc=4
%Mem=2GB
# td=(NStates=1) CAM-B3LYP/6-31G(d,p) 

TD

0 1
 8  14.65579110411041 -2.39932286538654 -0.24084100710071
 8 -14.60586565056506  1.91637694279428  1.13042257325733
 6  11.05015736173617 -1.59719227132713  0.92629879087909
 6 -12.29181434543454 -1.09606122402240  0.65827947194719
 6  12.56136970297030 -1.84469376547655  0.99910480248025
 6 -13.50886760576058 -0.31811983188319  0.82999581158116
 6  13.24178221722172 -1.98549087118712 -0.34560810581058
 6 -13.30913020602060  1.17427608870887  1.04969622062206
 6  10.71530085708571 -0.32955058205821 -0.02219551255126
 6 -11.24398076207621 -0.31794280118012 -0.26817449344934
 6  13.28509900090009 -0.55588407350735 -0.90054280828083
 6 -12.73380581858186  1.83620662776278 -0.21508086108611
 6  11.87863373237324  0.13165354825483 -0.81414405740574
 6 -11.55291588658866  0.96192282138214 -0.67937993399340
 6  10.63994503550355 -1.30181562256226  2.36968035203520
 6  10.14489510951095 -2.74402217021702  0.41924531453145
 6 -11.62677448344834 -1.33269296119612  2.04271040204020
 6 -12.63334982998300 -2.37290851275128 -0.07837657565757
 6  9.54412965396540  0.33389234223422  0.18909286928693
 6 -10.01786735873587 -1.00307304920492 -0.53212449744974
 6  11.75198107810781  1.25526069997000 -1.82213420342034
 6 -10.70686897489749  1.55842531963196 -1.74472136213621
 6  9.30820472547255  1.65782202520252  0.02420906090609
 6 -8.76449784678468 -0.55143709260926 -0.55052015401540
 6  8.06133523852385  2.32751873487349  0.16491726672667
 6 -7.56282431643164 -1.25454378227823 -0.71819798879888
 6  7.99454123812381  3.86997585258526  0.39156334033403
 6 -7.69325762276228 -2.65535511241124 -1.13156184118412
 6  6.85308527952795  1.65026396739674  0.06159367436744
 6 -6.28902159915992 -0.57983624552455 -0.55739466446645
 6  5.63945465946595  2.15620985898590  0.16700366936694
 6 -5.02386093209321 -1.10273734663466 -0.51092797079708
 6  4.44292307830783  1.37436363036304 -0.00369245424542
 6 -3.87944924192419 -0.31984420842084 -0.34200701570157
 6  3.10890838183818  1.83230762176218  0.23047716371637
 6 -2.58382383838384 -0.64738481748175 -0.40653900890089
 6  2.82853442044204  3.30210790279028  0.56174383238324
 6 -2.14663343134313 -2.15177866986699 -0.64367559355936
 6  2.07799688868887  0.92397446144614 -0.10971165116512
 6 -1.62782474247425  0.19098698769877 -0.18418236923692
 6  0.67039386838684  1.12247506150615 -0.03641231323132
 6 -0.17952782278228  0.13770617061706 -0.26536750675068
 1  13.14499307930793 -1.04715812591259  1.46326201520152
 1  12.94024752375238 -2.76901011511151  1.67452513651365
 1 -13.88582155515552 -0.86771421332133  1.81729265026503
 1 -14.15461895689569 -0.51348922082208 -0.00800265626563
 1  12.79689069606961 -2.79862917001700 -0.85794635263526
 1 -12.68437886988699  1.41345532763276  1.81378911291129
 1  14.01866645364536 -0.01612903500350 -0.10164534553455
 1  13.47769332633263 -0.67521287838784 -1.82194492549255
 1 -13.33119832883288  1.92330739083908 -0.99355209820982
 1 -12.43159913291329  2.73114813491349  0.00500153615362
 1  10.69557224622462 -2.30877930693069  2.95556025202520
 1  9.41523985098510 -1.25377517651765  2.46755351035103
 1  11.18098184018402 -0.49316818391839  2.81377476347635
 1  10.41227749074907 -3.09065383938394 -0.52624930793079
 1  10.31329033193319 -3.50642928592859  1.14345378537854
 1  8.96757407440744 -2.61383269126913  0.57236395739574
 1 -11.21372305830583 -0.41851434533453  2.35256555355536
 1 -10.70764360336034 -1.94039658355836  1.91262504650465
 1 -12.52982387538754 -1.53780120002000  2.70656123612361
 1 -13.67241769076908 -2.75598429432943  0.41467959895990
 1 -11.98292352735274 -3.37435402430243  0.32350524852485
 1 -12.76733459245924 -2.26625581748175 -1.09193193519352
 1  8.71740364336434 -0.26735114611461  0.52287940894089
 1 -10.12891765676568 -2.10518758265827 -0.38730253225323
 1  10.71393268526853  1.49170384038404 -2.04206626562656
 1  12.19388521752175  2.24901584448445 -1.29006461446145
 1  12.44810648064806  1.05881673657366 -2.61132382138214
 1 -11.19896429742974  1.97617318141814 -2.59316003700370
 1 -9.91947792579258  0.80598461756176 -2.03598956595660
 1 -10.10100428442844  2.50363301740174 -1.18920207620762
 1  14.55561468946895 -3.11558688578858  0.38457673767377
 1 -15.19874456745674  1.46411371147115  1.85119621562156
 1  10.13843976297630  2.26217312531253 -0.24560773577358
 1 -8.69265400140014  0.45458005910591 -0.37235786178618
 1  9.01496918391839  4.12968635063506  0.39809565056506
 1  7.39230561756176  4.36438129912991 -0.43408975497550
 1  7.59399865986599  4.11067213521352  1.46945378337834
 1 -8.03394618861886 -3.35557021492149 -0.20238552755276
 1 -8.36137050805081 -2.92967297019702 -1.93512540154015
 1 -6.77994376637664 -2.98468300820082 -1.29512494649465
 1  6.80097595259526  0.52505572057206 -0.39508738373837
 1 -6.51440841684169  0.65572306740674 -0.19828495349535
 1  5.78493619861986  3.17461313331333  0.40792730173017
 1 -4.84987545854585 -2.17800547854785 -0.74568071807181
 1  4.44123731673167  0.30385513151315 -0.21655372337234
 1 -3.98941034503450  0.77526689868987 -0.21584030303030
 1  3.27914354235424  3.69045093509351  1.61064430543054
 1  1.83254151515151  3.48806978897890  0.63639824182418
 1  3.14631001100110  3.92703932893289 -0.24488754675468
 1 -2.49244035903590 -2.73850614261426  0.10714304930493
 1 -2.68993770677068 -2.31671873387339 -1.58639738173817
 1 -1.25912629762976 -2.35973352335234 -0.62188073107311
 1  2.35266662966297 -0.11036431743174 -0.58190440244024
 1 -2.05966058905891  1.20523876787679  0.28560465346535
 1  0.21090138913891  2.01656708370837  0.35484749474947
 1  0.15401718671867 -0.74460462446245 -0.48018969296930

