%nproc=4
%Mem=2GB
# td=(NStates=1) CAM-B3LYP/6-31G(d,p) 

TD

0 1
 8  14.64136966196620 -2.38447138023802  0.03181625862586
 8 -14.75269033303330  1.67999330443044  1.36601613261326
 6  11.16396874287429 -1.41211376347635  1.20848700970097
 6 -12.31042620662066 -1.18217983588359  0.68580222422242
 6  12.65933949994999 -1.83395269136914  1.34882977497750
 6 -13.59633635263526 -0.37398541844184  0.94826763876388
 6  13.37736577557756 -1.91190351245125  0.02528898389839
 6 -13.44483377637764  1.11298996009601  1.21833308430843
 6  10.94167349434944 -0.27694532153215  0.12350905790579
 6 -11.26642300630063 -0.17804881178118 -0.01627930393039
 6  13.16368685968597 -0.61217970307031 -0.82158491249125
 6 -12.72329476747675  1.82123513061306  0.19921056805681
 6  11.92084795379538  0.10612099499950 -0.75092773577358
 6 -11.50481107610761  1.08008463756376 -0.32564456045605
 6  10.78611965296530 -1.10213565456546  2.62050543454345
 6  10.34892551255125 -2.64549231723172  0.79598298829883
 6 -11.69213101910191 -1.71935162706271  2.03558968996900
 6 -12.65056155115512 -2.45510673257326 -0.27690642864286
 6  9.62473771477148  0.30352930593059  0.24515847584758
 6 -10.02910848284828 -0.76128887078708 -0.53279456445645
 6  11.75425130513051  1.07906308020802 -1.84989697969797
 6 -10.62418070607061  1.81285076217622 -1.27228411841184
 6  9.37649155415542  1.63371961496150 -0.00998435843584
 6 -8.80095149214922 -0.38625057395740 -0.40208531053105
 6  8.03508261326133  2.30581656465647  0.18589936493649
 6 -7.60219825382538 -1.09149747764776 -0.71176734573457
 6  7.99991177517752  3.81958081308131  0.33468765276528
 6 -7.56703500050005 -2.59784936183618 -1.21677036203620
 6  6.93828379937994  1.51581052205221 -0.07136962196220
 6 -6.40332302930293 -0.48167642954295 -0.46682560756076
 6  5.52123283728373  2.00877511551155 -0.10788381938194
 6 -5.06888543454345 -1.02811988488849 -0.75838271627163
 6  4.40393917991799  1.25514170817082 -0.27259934493449
 6 -3.93946524352435 -0.22650487448745 -0.48725154015402
 6  3.09976746774678  1.71050544154415 -0.17407329132913
 6 -2.59690514651465 -0.63491357035704 -0.76954530953095
 6  2.87570913791379  3.08276596859686  0.23173083108311
 6 -2.32147091509151 -2.05503899589959 -1.33902512851285
 6  1.99005809480948  0.78490055405541 -0.53024370437044
 6 -1.58639059905991  0.34727261626163 -0.58157210821082
 6  0.64029085808581  1.07528034203420 -0.24358303030303
 6 -0.23742361236124  0.12920532053205 -0.70111108110811
 1  13.22557113711371 -1.20496390649065  2.11967765676568
 1  12.68752225122512 -2.89844305840584  1.89914759875988
 1 -14.30055302830283 -0.96152359425943  1.54042496349635
 1 -14.27255075007501 -0.18513638553855  0.12766091009101
 1  12.64865587258726 -2.67194650175017 -0.40158071607161
 1 -13.08044847684769  1.35917990009001  2.21910964496450
 1  13.90859544654465  0.15649822772277 -0.41595677667767
 1  13.33921947894789 -0.78534389148915 -1.89077180818082
 1 -13.41676688568857  1.87834289438944 -0.67618036103610
 1 -12.48481445444544  2.98431345144514  0.57934897089709
 1  10.84928761776178 -1.95585401440144  3.29290398639864
 1  9.70641896889689 -0.92508230723072  2.66189294429443
 1  11.38794253625363 -0.06215508260826  2.79760314631463
 1  10.85325158815882 -3.05593036703670 -0.08201488448845
 1  10.37856685958596 -3.32803144614461  1.77939737973797
 1  9.36039335633563 -2.45962727072707  0.47420414141414
 1 -11.55229691569157 -0.79295178907891  2.74411470847085
 1 -10.84765760476048 -2.20177272117212  2.01782556655666
 1 -12.45103599659966 -2.14502192209221  2.62895347534754
 1 -13.61355180418042 -2.89571826772677  0.11722985398540
 1 -11.98043327832784 -3.28105469436944 -0.30776787878788
 1 -13.02287014601460 -2.07864705660566 -1.34540728272827
 1  8.76576847984799 -0.43576798779878  0.56057317831783
 1 -10.28996376137614 -2.04802186608661 -0.76906070807081
 1  10.62209350135013  1.36653132313231 -2.15419747874788
 1  12.16908273727373  2.06571751465147 -1.79481508950895
 1  12.22698436843684  0.75218607350735 -2.78656134513451
 1 -11.27002140314031  2.74306987108711 -1.71335205620562
 1 -10.04006998499850  1.30189420852085 -2.04845081208121
 1 -9.87729191319132  2.42680533463346 -0.49825298129813
 1  14.77330645864586 -3.14473980108011  0.52881116111611
 1 -15.16564125712571  1.56311361146115  2.44333542954295
 1  10.09546546554655  2.27130403840384 -0.29217239223922
 1 -8.51903663966397  0.60304490559056  0.07435680968097
 1  9.10135782278228  4.35632901490149  0.33251909290929
 1  7.40325671267127  4.32894775577558 -0.44012035803580
 1  7.63441270127013  4.04920598859886  1.26028286628663
 1 -7.79866266026603 -3.39676433433343 -0.47713300230023
 1 -8.23231760276028 -2.84344434733473 -2.10726261526153
 1 -6.61689746174617 -2.87169170907091 -1.39240467446745
 1  7.10942679767977  0.53269648464846 -0.31388926392639
 1 -6.31757873387339  0.39737723282328 -0.06388151315132
 1  5.70467817281728  3.09212488448845  0.35685219421942
 1 -4.84693516451645 -2.07051472947295 -1.25394154415442
 1  4.59741293429343  0.28360310631063 -0.81552362036204
 1 -4.25841724572457  0.69882925492549 -0.04959367836784
 1  2.98491411941194  3.52916480648065  1.23824706570657
 1  1.90112837383738  3.48591957395740  0.26897149914991
 1  3.49191457145715  3.66221284628463 -0.50379343734373
 1 -2.97252836783678 -2.77858015001500 -0.94265193019302
 1 -2.49848856185619 -2.20739780178018 -2.38895763776378
 1 -1.39464984998500 -2.41111866186619 -1.20428897189719
 1  2.42558392139214 -0.29498277927793 -1.05794200620062
 1 -1.78995361836184  1.35044328832883  0.01644773777378
 1  0.40322062106211  1.86998242524252  0.71432344234423
 1  0.21854363936394 -0.85165532953295 -1.11284295829583

