%nproc=4
%Mem=2GB
# td=(NStates=1) CAM-B3LYP/6-31G(d,p) 

TD

0 1
 8  14.78684420942094 -1.97935086818682 -0.28364528752875
 8 -14.75366043004300  1.80130543564356  0.99427895889589
 6  11.24781712771277 -1.48492104420442  1.00933709470947
 6 -12.39470463446345 -1.03104472237224  0.71627527152715
 6  12.77391095709571 -1.75862515861586  1.04935982798280
 6 -13.78454517351735 -0.30781880178018  0.72686549854985
 6  13.37811585058506 -1.75345766786679 -0.31286483148315
 6 -13.52613190619062  1.19216787788779  0.88934018501850
 6  11.02484181118112 -0.29463709070907  0.00940764776478
 6 -11.31499786378638 -0.23198420532053 -0.12855053105311
 6  13.28989948094809 -0.45128361346135 -0.88748150215022
 6 -12.81984442244224  1.78723173027303 -0.25722507550755
 6  11.93356922592259  0.11990237313731 -0.88026066906691
 6 -11.53182377737774  1.03228985808581 -0.59581157715772
 6  10.92628366936694 -1.13785922692269  2.41124450845084
 6  10.59581020102010 -2.63600136813681  0.52478586858686
 6 -11.81959376537654 -1.28311800370037  2.13224935593559
 6 -12.62285878087809 -2.29602082398240  0.04819608160816
 6  9.66619186018602  0.33523247624762  0.28492245224522
 6 -10.08537410941094 -0.84185692759276 -0.45501678667867
 6  11.56015189518952  1.08243341724172 -1.91974396439644
 6 -10.63311159915992  1.88088756585659 -1.47281417141714
 6  9.38734263926393  1.67791403440344  0.17708434843484
 6 -8.85733713071307 -0.31721367026703 -0.31636673867387
 6  8.04548365336534  2.20819680268027  0.20749152415242
 6 -7.60270830483048 -1.04586291419142 -0.62514868386839
 6  7.83271505550555  3.73256211121112  0.57775195919592
 6 -7.82447074407441 -2.56653623052305 -1.04271295629563
 6  6.88836880788079  1.41843078407841  0.14898241324132
 6 -6.38650134713471 -0.43840210211021 -0.45871479647965
 6  5.58783949794979  1.97313155115512  0.17950491949195
 6 -5.14144269026903 -1.00510758365837 -0.61979885788579
 6  4.50420920692069  1.22823901790179  0.00718863386339
 6 -3.89678097509751 -0.34613683768377 -0.48089090409041
 6  3.08748623962396  1.62540693169317  0.12665678167817
 6 -2.63054851085109 -0.86711679067907 -0.63795215021502
 6  2.76773834083408  3.05050274227423  0.43980163816382
 6 -2.41981074907491 -2.27330082208221 -0.97942916891689
 6  2.09873896289629  0.63513557755776 -0.16734741474147
 6 -1.54301626162616  0.00768865786579 -0.43169712071207
 6  0.80972780178018  0.78449126312631 -0.19022769476948
 6 -0.19371924192419 -0.14211181118112 -0.35352632263226
 1  13.56638521852185 -1.15692910301030  1.66555224422442
 1  13.19536303530353 -2.82026524062406  1.70001768576858
 1 -14.30721369436944 -0.84401184308431  1.52248316931693
 1 -14.20717421242124 -0.52339021092109 -0.22118397439744
 1  12.88129913691369 -2.52241154825483 -0.98649920792079
 1 -12.95505593759376  1.49195317741774  1.81582931693169
 1  13.94483907090709  0.45940851875188 -0.25786096709671
 1  13.82317787478748 -0.54732008910891 -1.81530426142614
 1 -13.40771598059806  1.96075113521352 -1.29701244424442
 1 -12.51075704870487  2.77387240734073  0.01838287428743
 1  11.12577526652665 -2.00435886488649  2.98560325632563
 1  9.89670799779978 -0.84123392239224  2.58801555655566
 1  11.51792553455346 -0.26263513061306  2.46913029902990
 1  10.94016027902790 -3.04261903590359 -0.50429711271127
 1  10.84656365926593 -3.61917056005601  1.28322776277628
 1  9.68438575557556 -2.55276658465847  0.43435015601560
 1 -11.66891857785779 -0.34472696659666  2.56616691369137
 1 -10.91065390439044 -1.90014255815582  2.08184196819682
 1 -12.53237413041304 -1.68127554745475  2.78260884088409
 1 -13.39230967996800 -2.84724342024202  0.32355048604860
 1 -11.77472270727073 -2.93778036693669  0.03505640364036
 1 -12.90869872887289 -2.24611380328033 -1.07858060006001
 1  8.78930083308331 -0.45921033203320  0.74997211821182
 1 -10.21161592659266 -1.90363742764276 -0.66595039703970
 1  10.40988228022802  1.09889455945595 -2.30250230923092
 1  11.79188501750175  2.30795173807381 -1.80623623162316
 1  12.20367203720372  0.78130898579858 -2.68664135313531
 1 -10.95908030903090  2.35057062116212 -2.30123084408441
 1 -9.97905388338834  1.40991501060106 -1.91844781178118
 1 -9.93629781378138  2.53584623872387 -0.94462761876188
 1  15.03633276127613 -2.91696702380238  0.18153643364336
 1 -15.23524821782178  1.57113441354135  1.88026912291229
 1  10.23400931993199  2.32158906690669 -0.12479565456546
 1 -8.80202493849385  0.74384898599860 -0.08115874187419
 1  8.69564725172517  4.28220160216022  0.54118995999600
 1  7.21429781678168  3.99460432143214 -0.24110045604560
 1  7.30983024302430  4.03093416141614  1.45938277627763
 1 -8.12600539453945 -3.06419107700770 -0.11239652865287
 1 -8.40879525052505 -2.64398440134013 -1.90845273427343
 1 -6.77796356835684 -3.09914445434543 -1.24034946894689
 1  6.88550440544054  0.44222743774377 -0.21484935993599
 1 -6.20659763576358  0.62442993809381 -0.16223134813481
 1  5.35678338333833  3.08388406040604  0.38265477447745
 1 -5.17647811881188 -2.18755643364336 -0.57667381738174
 1  4.41301449444945  0.09620436643664 -0.09961202920292
 1 -4.08889029302930  0.87830720272027 -0.41060977997800
 1  2.80808643664366  3.25614750475048  1.55198843984398
 1  1.79417767876788  3.40750173217322  0.11791639363936
 1  3.56894227422742  3.62714933993399 -0.14585764376438
 1 -3.06777789278928 -2.81559385138514 -0.15955362036204
 1 -2.65262397539754 -2.55319238123812 -2.13477221922192
 1 -1.30258064306431 -2.46660421042104 -0.77349589258926
 1  2.44262562556256 -0.46313959495950 -0.44097030903090
 1 -1.94392901590159  0.99717796179618 -0.00116402340234
 1  0.42052235123512  1.64327975497550  0.29464147414741
 1  0.24923670867087 -1.11659182318232 -0.41762343634363

