%nproc=4
%Mem=2GB
# td=(NStates=1) CAM-B3LYP/6-31G(d,p) 

TD

0 1
 8  14.44485001000100 -2.36168910201020 -0.20101702470247
 8 -14.77640270427043  1.65819112421242  1.05190472147215
 6  10.94049639563956 -1.49483203530353  0.98821498249825
 6 -12.22586775077508 -1.15650726862686  0.63576722072207
 6  12.51514508050805 -1.91964126022602  1.04482937493749
 6 -13.68668538753875 -0.45111313121312  0.74271708370837
 6  13.11196923592359 -2.04815713781378 -0.31963550855086
 6 -13.47316660966097  1.11480014111411  1.03104435543554
 6  10.86456578357836 -0.27059468646865  0.03672037903790
 6 -11.27604396839684 -0.29600060696070 -0.23581125712571
 6  13.15101559255925 -0.71872035713571 -0.93252600660066
 6 -12.74224666266627  1.74617762486249 -0.21518087108711
 6  11.83287915691569 -0.04002361946195 -0.95800844384438
 6 -11.51509210421042  0.93876050515052 -0.69468146414641
 6  10.65231627262726 -1.01163660466047  2.38745212921292
 6  10.20271089108911 -2.80841860986099  0.62904629462946
 6 -11.55071687768777 -1.27658735063506  2.05535166616662
 6 -12.52244873987399 -2.56394761666167  0.10963222522252
 6  9.58825406640664  0.43129208220822  0.23893785378538
 6 -9.98779435143514 -0.96952969486949 -0.55550683568357
 6  11.62516839683968  1.12999817371737 -1.92338432843284
 6 -10.68697698569857  1.72767224432443 -1.57475436543654
 6  9.33864776977698  1.74934117711771  0.01309794979498
 6 -8.75126652365237 -0.48210015891589 -0.34038914091409
 6  8.12072117711771  2.35922190519052  0.14785556055606
 6 -7.51266930093009 -1.13211153905391 -0.58074424342434
 6  8.07927971197120  3.77874672967297  0.36049023302330
 6 -7.48382667966797 -2.54636421332133 -1.13574225922592
 6  6.89356932793279  1.57339628062806  0.11226874187419
 6 -6.32388508550855 -0.41669993189319 -0.44565349034904
 6  5.63800451445145  2.17355159315932  0.21001797079708
 6 -5.02676122212221 -0.84299137203720 -0.62337921592159
 6  4.55374416041604  1.34992118611861  0.02899081408141
 6 -3.88981027802780 -0.08258048204820 -0.30098291329133
 6  3.18612610361036  1.72491688268827  0.24619873587359
 6 -2.53975943194319 -0.49384946394639 -0.55130348534853
 6  2.70610217721772  3.19620731273127  0.61499915791579
 6 -2.29825859385939 -1.97746123812381 -1.03184441044104
 6  2.25654474347435  0.74552661666167 -0.04879555955596
 6 -1.52391435143514  0.35361325032503 -0.33131708270827
 6  0.85361219021902  0.91476429042904 -0.05346401840184
 6 -0.18764863486349 -0.00104770477048 -0.40507147714771
 1  13.21288986898690 -1.31511492159216  1.53066875587559
 1  12.54259775877588 -2.82973618771877  1.60875855985599
 1 -14.22354532753275 -0.90525796769677  1.63935485648565
 1 -14.15833932893289 -0.57680555245525 -0.12029388538854
 1  12.66166717371737 -2.75430473757376 -0.92285284328433
 1 -13.02289272127213  1.31808579067907  1.81368910291029
 1  13.98439302630263 -0.17128455055505 -0.47547272827283
 1  13.46433199019902 -0.89900525762576 -2.05188791979198
 1 -13.63693890289029  1.82141720182018 -0.89684242724272
 1 -12.57287326032603  2.72488750885089 -0.17188615261526
 1  10.88674136313631 -1.60794922392239  3.11116581258126
 1  9.55354368136814 -0.86711651065107  2.45593234823482
 1  11.25018876087609  0.06319745264526  2.46944033003300
 1  10.40106636963696 -2.95027980198020 -0.51145782878288
 1  10.43204220712071 -3.69745838883888  1.43511295129513
 1  8.99646696369637 -2.68829013701370  0.57605432643264
 1 -11.70617230323032 -0.27794028792879  2.47094739173917
 1 -10.71197403640364 -1.97353989788979  2.13581736573657
 1 -12.50013090609061 -1.76737415731573  2.67044762476248
 1 -13.52047249624962 -2.95789448534854  0.67422555355536
 1 -11.64674990999100 -3.14863145204520  0.16703960196020
 1 -12.60209806880688 -2.84905409730973 -0.85090783278328
 1  8.84262616561656 -0.44625903690369  0.81913903490349
 1 -10.05239000400040 -1.90996806070607 -0.89304310631063
 1  10.56704799679968  1.28832350235023 -2.21286334533453
 1  11.87521335033503  1.95703664656466 -1.55407101510151
 1  12.21395306530653  1.07564841974197 -2.87822051105111
 1 -11.37853225422542  2.09372493659366 -2.30278099909991
 1 -9.86531250925093  0.94792881198120 -2.06398236523652
 1 -10.16639082308231  2.42902555665567 -1.10865402140214
 1  14.61364049204921 -3.19470479757976  0.15633391339134
 1 -15.26677137013701  1.47847514761476  1.72165326132613
 1  10.39805572457246  2.41129803780378 -0.29894306930693
 1 -8.54316905290529  0.40961556265627  0.18491786578658
 1  9.14746243324332  4.14530791279128  0.47464330533053
 1  7.46468285528553  4.27303216421642 -0.26766311231123
 1  7.66253551355136  3.83185425342534  1.43439027702770
 1 -8.11838463246325 -3.34822948084809 -0.39075436443644
 1 -8.22924729572957 -2.78548855175517 -2.14324621362136
 1 -6.54577034903490 -2.81148568846885 -1.46245167916792
 1  7.10229608460846  0.60498371337134 -0.30694856985699
 1 -6.43345032103210  0.53999149424942  0.22268714371437
 1  5.62996070107011  3.32281795379538  0.54431094009401
 1 -4.77138760976098 -1.87555523352335 -0.92557870787079
 1  4.82127532053205  0.32489723572357 -0.07306937493749
 1 -4.00825222922292  1.04361373337334 -0.22961168016802
 1  3.08504413241324  3.46928881888189  1.63840708170817
 1  1.61147940894089  3.26254723672367  0.47692229422942
 1  3.24867024702470  3.93386001100110  0.03457039903990
 1 -2.73374448944895 -2.68513080508051 -0.51047871287129
 1 -2.61738045104510 -2.02867992999300 -2.20086882888289
 1 -1.30051043604360 -2.24614216421642 -0.80411895489549
 1  2.75568693169317 -0.31497477847785 -0.23707991999200
 1 -1.91200582358236  1.40425866986699 -0.17815172217222
 1  0.52839313831383  1.88041346834683  0.10275228522852
 1  0.23434521952195 -0.98648881288129 -0.86251792579258

