%nproc=4
%Mem=2GB
# td=(NStates=1) CAM-B3LYP/6-31G(d,p) 

TD

0 1
 8  14.67598312331233 -2.28561149424943 -0.24109103210321
 8 -14.67923298729873  1.91307661276128  1.09989952095210
 6  11.24056640264026 -1.44308686078608  0.96776293729373
 6 -12.35324048804880 -0.99075069296930  0.66679032303230
 6  12.72150571657166 -1.74031332743274  1.06619151115112
 6 -13.64482120112011 -0.14513253315332  0.74593740574057
 6  13.37187522652265 -1.78930125222522 -0.31610515551555
 6 -13.42871216421642  1.38423708480848  1.02571382238224
 6  11.02792211921192 -0.22234986198620  0.02809951695170
 6 -11.32794915891589 -0.16089709660966 -0.16225390139014
 6  13.27674816581658 -0.32612109720972 -0.93662641664166
 6 -12.72987542554255  1.89651265836584 -0.20743009600960
 6  11.93111898089809  0.21278166106611 -0.89640228322832
 6 -11.59214980998100  1.06611324042404 -0.62261425742574
 6  10.65491653265327 -1.00697613861386  2.34609799379938
 6  10.33879449944994 -2.68433620162016  0.42277566756676
 6 -11.77903970997100 -1.34664435633563  2.05130126112611
 6 -12.72223871887189 -2.34272549444945  0.04264552655266
 6  9.69782502350235  0.34736368936894  0.26830079007901
 6 -10.08293386538654 -0.93888663056306 -0.43333461846185
 6  11.78317419741974  1.38984415831583 -1.76910890089009
 6 -10.60542883088309  1.71347082418242 -1.51084797479748
 6  9.42469637463747  1.63123936693669  0.19423606360636
 6 -8.81033243024302 -0.49697164606461 -0.47627272927293
 6  8.01935104010401  2.21825780878088  0.26942771777178
 6 -7.66159419341934 -1.24245257315732 -0.73590975997600
 6  7.85327711171117  3.70687954295430  0.57669185318532
 6 -7.65521381838184 -2.77289686658666 -0.94084276927693
 6  6.88760873187319  1.48265720672067  0.06363387838784
 6 -6.41254395139514 -0.48895715761576 -0.60148907390739
 6  5.55884659865987  1.93491772977298  0.23955092409241
 6 -5.12552109810981 -1.03609068196820 -0.68506538453845
 6  4.44692347834783  1.17865405940594  0.07265518051805
 6 -3.89597089408941 -0.31842406640664 -0.44618743374337
 6  3.12465995699570  1.57239163016302  0.00711482748275
 6 -2.62425788178818 -0.82086216521652 -0.56628498349835
 6  2.90086165316532  3.06204389638964  0.39255691369137
 6 -2.38458722672267 -2.37503099509951 -0.88265949194919
 6  2.14268335733573  0.64337640164016 -0.21674235423542
 6 -1.61121308130813  0.04229211821182 -0.30480443144314
 6  0.78568539753975  0.86540935493549 -0.18327699969997
 6 -0.19887975797580 -0.09950755075508 -0.33414438443844
 1  13.42145072507251 -0.93846725682568  1.54410009900990
 1  12.88995249424942 -2.64554776887689  1.53966165016502
 1 -14.47308028102810 -0.54435187708771  1.53737465846585
 1 -14.06082957795780 -0.33982185408541 -0.21014287028703
 1  12.74123513051305 -2.51423073017302 -0.92473303130313
 1 -12.80955138713871  1.47727170927093  2.12223995799580
 1  14.02331691869187  0.26626920482048 -0.49609479047905
 1  13.52009756675668 -0.49102445954595 -1.86001873287329
 1 -13.29215442444244  1.89045410551055 -1.14657740074007
 1 -12.30488646164616  2.92624764486449  0.11056209220922
 1  10.67188987798780 -1.99426785578558  3.09309400540054
 1  9.58765709270927 -1.22476227522752  2.20084683968397
 1  10.83575731773177 -0.06351521862186  2.68309169516952
 1  10.63388965196520 -2.96871164516452 -0.61948863186319
 1  10.42286128902890 -3.37025566856686  1.21499093909391
 1  9.29449676667667 -2.43968527652765  0.38909563056306
 1 -11.54577626362636 -0.48602109600960  2.67599789678968
 1 -10.82299513851385 -1.90807335123512  1.85166895089509
 1 -12.48377927092709 -2.02070949084909  2.59106968696870
 1 -13.56117656665666 -2.47949664556456  0.63172130313031
 1 -11.95714094909491 -3.06127271617162  0.34814771277128
 1 -12.77637549654965 -1.99884907680768 -0.89445218721872
 1  8.77151905490549 -0.30135454645465  0.59594671567157
 1 -10.24490925592559 -1.99804686858686 -0.52582638463846
 1  10.63641493349335  1.43110778077808 -2.18546060506051
 1  11.95856168516852  2.30749169206921 -1.37230283828383
 1  12.07289895989599  1.59675052995300 -2.89364205320532
 1 -11.25501990299030  2.09615517961796 -2.38055877687769
 1 -9.84125010301030  1.08267228632863 -2.03168913591359
 1 -10.24612879687969  2.51382403650365 -1.21248440444044
 1  14.77544667266727 -3.11360668776878  0.51168944894489
 1 -15.05640033303330  1.60166746684668  1.88052914891489
 1  10.21112703170317  2.46744365236524  0.18177500250025
 1 -8.55001973797380  0.63268786988699 -0.05665629162916
 1  8.75833352035204  4.18878226022602  0.54560040104010
 1  7.29677606460646  4.11308616961696 -0.28942528852885
 1  7.26809606960696  3.75627669566957  1.56347318531853
 1 -7.90193298729873 -3.41595625352535  0.14153886488649
 1 -8.34898926992699 -3.01313131603160 -1.73341523052305
 1 -6.75626139813981 -3.22995753565357 -1.07938337233723
 1  7.01557741274128  0.44152736773677 -0.18244611961196
 1 -6.42205918191819  0.63842133723372 -0.28624374937494
 1  5.57812551755176  2.78857452945295  0.78227473647365
 1 -4.87526799779978 -1.98579625762576 -1.03081923192319
 1  4.68826201920192  0.07467221322132 -0.55093716171617
 1 -3.93468487248725  0.72045141714171 -0.02438115711571
 1  3.49313494149415  3.14659654965497  1.18529177017702
 1  1.90796905790579  3.01666264826483  0.33501810381038
 1  3.26472185218522  3.91979860486049 -0.22932599059906
 1 -2.62695381038104 -2.94467675967597  0.11275361036104
 1 -2.85932464546455 -2.80086714871487 -1.76099484148415
 1 -1.33920430543054 -2.67561511151115 -1.09961850485049
 1  2.48320968396840 -0.31275455645565 -0.33596980898090
 1 -1.85670029302930  1.08832707670767 -0.08050195719572
 1  0.37482778177818  1.81988741574157  0.14391640164016
 1  0.21048283328333 -1.15951611561156 -0.63184485848585

