%nproc=4
%Mem=2GB
# td=(NStates=1) CAM-B3LYP/6-31G(d,p) 

TD

0 1
 8  14.66277180218022 -2.24777771087109 -0.10284720772077
 8 -14.57318238223822  1.90318562366237  1.21485101610161
 6  11.02830517651765 -1.48366091819182  1.02105826682668
 6 -12.35509067306731 -1.01314293219322  0.77351099509951
 6  12.53186675267527 -2.02746204230423  1.08870376237624
 6 -13.71598831783178 -0.26785480538054  0.91022383438344
 6  13.29735777477748 -2.00987330943094 -0.30174371937194
 6 -13.40498979197920  1.21103976507651  1.10164141514151
 6  10.97378670567057 -0.20858848584859  0.12431913891389
 6 -11.26797316131613 -0.25986699359936 -0.14413208920892
 6  13.32876336733673 -0.59524800990099 -0.79051180518052
 6 -12.70634307230723  1.73828683578358 -0.18623797679768
 6  11.96068193719372  0.16134651755176 -0.74622726572657
 6 -11.60274086908691  0.98038466756676 -0.61665366136614
 6  10.60439148014802 -1.27885332633263  2.40217360136014
 6  10.21494211421142 -2.68875664366437  0.53153654365437
 6 -11.76178798479848 -1.38177786968697  2.20395652665267
 6 -12.68575507050705 -2.44801602350235  0.17269853185319
 6  9.66420166116612  0.42533148614861  0.17757171717172
 6 -10.10260583258326 -1.03849659155916 -0.52253353835384
 6  11.83087896789679  1.34597977187719 -1.76147813781378
 6 -10.62926121412141  1.71311078817882 -1.61149803980398
 6  9.37329123412341  1.70556679967997  0.10961760176018
 6 -8.80179157615762 -0.57635958485849 -0.48573367536754
 6  8.04356346134613  2.26330231323132  0.13627440244024
 6 -7.58003603760376 -1.27738606650665 -0.67006317531753
 6  8.02288407240724  3.81554040904090  0.48518270227023
 6 -7.63578187518752 -2.68695827272727 -1.10326901190119
 6  6.86125609660966  1.55514445544554  0.01405892089209
 6 -6.46118881588159 -0.46360462236224 -0.56072499749975
 6  5.57616833083308  2.07255149314931  0.08243521252125
 6 -5.10456900290029 -0.95395246814682 -0.70205708370837
 6  4.49029781578158  1.27168336233623  0.05221313631363
 6 -3.92572386938694 -0.29318154215422 -0.53304611961196
 6  3.16321381238124  1.70779517051705  0.04209832583258
 6 -2.61794725072507 -0.69957003600360 -0.59206756175618
 6  2.94598616561656  3.14938263026303  0.39856751475148
 6 -2.22569133713371 -2.08278177017702 -0.94975620162016
 6  2.10208929792979  0.79572163616362 -0.24457513751375
 6 -1.61189314931493  0.25067295629563 -0.48987293829383
 6  0.78429525852585  1.05858867286729 -0.24283295529553
 6 -0.17106697669767  0.12046444644464 -0.51846281628163
 1  13.05547412741274 -1.26227963806381  1.70468615761576
 1  12.53616711571157 -2.95941915601560  1.42473015701570
 1 -14.43335630863086 -0.94690213211321  1.37839876087609
 1 -14.32171566656666 -0.33463133503350 -0.15606746274627
 1  12.72330333733373 -2.75195450255026 -1.01202176017602
 1 -12.96738717071707  1.40031401350135  1.94774250825083
 1  13.96489107610761  0.07003958185819 -0.13903908490849
 1  13.65842139913991 -0.44101945904590 -1.87193992499250
 1 -13.40642585158516  1.74405946604660 -0.96783952695270
 1 -12.22549852285229  2.87631265136514 -0.04488345234523
 1  10.72130481948195 -2.14879330833083  2.87596229222922
 1  9.63248157515751 -0.99859965896590  2.23705046004600
 1  11.17747148914891 -0.43890275737574  2.69466285228523
 1  10.48635489848985 -2.80949572357236 -0.57402408540854
 1  10.15116411931193 -3.62847149014901  1.08631807180718
 1  9.22673999099910 -2.28698000600060  0.60301702270227
 1 -12.03516520252025 -0.60128262216222  2.97904820182018
 1 -10.40133297229723 -1.38960150405040  2.21440522452245
 1 -12.35797669066907 -2.31186860676068  2.31616219621962
 1 -13.62654310331033 -3.02884158005801  0.39071720272027
 1 -11.75320055505551 -3.09381597049705 -0.02378948094809
 1 -12.78979683868387 -2.17876706860686 -1.01992473447345
 1  8.77006890989099 -0.21687609860986  0.21381850285028
 1 -9.99676444144414 -2.32780984488449 -0.34767856985699
 1  10.72436372837284  1.43318798879888 -2.05880793979398
 1  12.07798362736274  2.34833577647765 -1.14820042804280
 1  12.39774144414441  1.20009086398640 -2.70051274027403
 1 -11.20684508550855  2.24026959105911 -2.33258397939794
 1 -10.14005998399840  0.95725974507451 -2.16166213321332
 1 -10.01817600160016  2.43025567966797 -1.15540869686969
 1  14.71337046504651 -3.27909323642364  0.10457873787379
 1 -14.63935862886288  1.55930323042304  2.22725382138214
 1  10.05030094909491  2.45514242224222  0.01171799679968
 1 -8.64726946294629  0.52044664576458 -0.36748737473747
 1  8.98167585458546  4.46307968996900  0.25973181418142
 1  7.27885427242724  4.25954081508151 -0.21001734773477
 1  7.71043030303030  3.88594966296630  1.59077591559156
 1 -8.12520531453145 -3.31756641454145 -0.34521981098110
 1 -8.50797516851685 -2.88815881878188 -1.98496038503850
 1 -6.62453822582258 -3.10856539643964 -1.43141857585759
 1  6.87597345234524  0.46858007300730 -0.21682955795580
 1 -6.61928890489049  0.54441193629363 -0.30846597159716
 1  5.34686239123912  3.22277794979498  0.17419392839284
 1 -4.98173864486449 -1.94191186918692 -0.87444359435944
 1  4.69427262026203  0.15187993399340  0.13243117511751
 1 -4.02070347434744  0.71531090309031 -0.18915763476348
 1  3.30754638263826  3.23141503150315  1.51385462646265
 1  1.75193345434543  3.59471045304530  0.46187078907891
 1  3.30086546654665  3.78206483148315 -0.44668772677268
 1 -2.71675279027903 -2.79804209620962 -0.35046271127113
 1 -2.48518723172317 -2.31213827582758 -1.97739648164816
 1 -1.02349273427343 -2.31056860686069 -0.80881942494249
 1  2.29033039603960 -0.23916719771977 -0.52405861786179
 1 -2.05535015801580  1.11045928992899 -0.41667557455746
 1  0.42395269426943  2.07667309430943  0.03885589558956
 1  0.10253203820382 -1.02175233923392 -0.74354602860286

