%nproc=4
%Mem=2GB
# td=(NStates=1) CAM-B3LYP/6-31G(d,p) 

TD

0 1
 8  14.79714523952395 -2.13389632273227  0.07333041004100
 8 -14.67033209720972  1.94131943704370  1.19711924292429
 6  11.14305665166517 -1.51883443554355  1.07430359135914
 6 -12.32032719671967 -0.96160777867787  0.77473111711171
 6  12.69740330633063 -1.95115441154115  1.20949584158416
 6 -13.63874059305931 -0.21303932383238  0.82888570057006
 6  13.47244528352835 -1.87212953505351 -0.13886743174317
 6 -13.45242453545355  1.30688935003500  1.24387563856386
 6  10.97726705370537 -0.25806343334333  0.18302500950095
 6 -11.32063842784278 -0.15015602250225 -0.02867054305431
 6  13.29019951095109 -0.45073355845585 -0.67770052405241
 6 -12.68806124412441  1.89020202730273  0.06086673367337
 6  12.02221809080908  0.27529791269127 -0.61698434143414
 6 -11.48704929992999  1.11562819191919 -0.40479247524752
 6  10.65437647864787 -1.16955239623962  2.47601098509851
 6  10.37596821682168 -2.70161792979298  0.35504889488949
 6 -11.77036884288429 -1.22588228012801  2.08741487248725
 6 -12.70762725772577 -2.41358258015802 -0.02930166816682
 6  9.68397363836384  0.36872582558256  0.09462342234223
 6 -10.08379395139514 -0.98426116801680 -0.44133541854185
 6  11.83632951295129  1.36388156205621 -1.62017400740074
 6 -10.55284357235723  1.88780825792579 -1.28316520652065
 6  9.36057996299630  1.71063730673067  0.21723836383638
 6 -8.83462485948595 -0.55988793769377 -0.32539764176418
 6  8.10468957395740  2.35510149314931  0.12696347134713
 6 -7.61769980398040 -1.38811713961396 -0.57958412741274
 6  7.90578236223622  3.67481633663366  0.81098528252825
 6 -7.65575387238724 -2.79488906580658 -1.02651133613361
 6  6.85770574157416  1.61627056805681 -0.23683616861686
 6 -6.43205590259026 -0.62754101600160 -0.52535146014601
 6  5.57642835683568  2.02688692669267 -0.10515354635464
 6 -5.07315586158616 -1.19532660556056 -0.74079095709571
 6  4.43713249924993  1.22956915091509 -0.38014009900990
 6 -4.00454175117512 -0.42808503250325 -0.52582539753975
 6  3.12065955695570  1.64602899389939 -0.10502638663866
 6 -2.68616407240724 -0.75735581458146 -0.81948030303030
 6  2.80474204120412  3.08509620162016  0.33483114111411
 6 -2.43197196519652 -2.28751224322432 -1.15928715471547
 6  2.02639172817282  0.72964502850285 -0.47352803280328
 6 -1.67248920892089  0.11238912791279 -0.63355730673067
 6  0.70445727472747  0.93345615961596 -0.46040471247125
 6 -0.25410528052805 -0.01697929792979 -0.80838180818082
 1  13.12832141214121 -1.30157356745675  2.02220790979098
 1  12.73298679767977 -2.90951416551655  1.69333701770177
 1 -14.21619459245925 -0.76722416431643  1.54945586658666
 1 -14.09618311331133 -0.41526939883988 -0.20529238523852
 1  12.89370037703770 -2.72046135323532 -0.61605216321632
 1 -12.93681411341134  1.44371835393539  2.06504423842384
 1  14.11927651465147  0.21846442434243 -0.06535171617162
 1  13.59573513051305 -0.61056641374137 -1.73756648764876
 1 -13.51515672467247  2.08906396649665 -0.86750949394940
 1 -12.51188716171617  3.00341536163616  0.23864490049005
 1  10.91688437743774 -2.01996042504250  3.24818951495150
 1  9.58867719471947 -0.97356715571557  2.54694144914491
 1  11.02492623462346 -0.13705257235724  2.74861824782478
 1  10.67011327432743 -2.71316609060906 -0.79985666866687
 1  10.71620062296230 -3.56841548454846  0.80588002800280
 1  9.32980029702970 -2.49252056005601  0.72970969196920
 1 -11.44884657065707 -0.32673516741674  2.56391668866887
 1 -10.80463330233023 -1.88151069496950  2.18210199419942
 1 -12.42835372837284 -1.69385680558056  2.80519109910991
 1 -13.68146859585958 -2.69845854175418  0.43247137813781
 1 -11.87572280728073 -3.18977556645665  0.09854275227523
 1 -12.93139099809981 -2.05000419231923 -1.13448619061906
 1  8.83381528452845 -0.43352776377638  0.15199232023202
 1 -10.26479124412441 -2.15366243014301 -0.36942074407441
 1  10.90743203520352  1.65630030003000 -1.90218227722772
 1  12.34279010801080  2.20483142604260 -1.26443205120512
 1  12.20546221622162  1.01851270617062 -2.58872156115612
 1 -11.10875527652765  2.49179474357436 -1.99629035003500
 1 -10.02273825182518  1.12205622472247 -1.95600156715672
 1 -9.76392057605760  2.50044269836984 -0.78934209020902
 1  14.85322445044505 -2.99100442754275  0.51288956895690
 1 -15.09237393039304  1.62905020512051  1.97132822882288
 1  10.24428034703470  2.40727763576358  0.34048087308731
 1 -8.78775351135113  0.35873047414741  0.03044241824182
 1  8.78466615361536  4.05004838683868  0.80671651265127
 1  7.26284267126713  4.43520838183818  0.24504815881588
 1  7.69692895289529  3.63135420342034  1.85455229322932
 1 -8.62195498949895 -3.48971362926293 -0.55201049004901
 1 -8.00142451345134 -2.92899290219022 -2.19798168716872
 1 -6.67689346134614 -3.43544808470847 -0.69635506950695
 1  6.98159401440144  0.61394460946095 -0.58061593659366
 1 -6.30978795479548  0.60238773387339 -0.36224134913491
 1  5.39151685668567  3.08967463946395  0.14438094709471
 1 -5.19050952195219 -2.21642932093209 -1.08521467146715
 1  4.54525771877188  0.32059680568057 -0.78612068006801
 1 -4.22559396339634  0.62681205320532 -0.14717343634363
 1  3.10414604260426  3.32300419041904  1.31937517851785
 1  1.76597485848585  3.33494447644765  0.28155275727573
 1  3.40667604760476  3.81838846384638 -0.30051310931093
 1 -2.71184229922992 -2.94632692469247 -0.22709037403740
 1 -3.00918963196320 -2.67228429042904 -2.07116585858586
 1 -1.38275866086609 -2.51854940494049 -1.44362290529053
 1  2.49804116711671 -0.22588586958696 -0.87467367936794
 1 -2.08944356735674  1.08141638563856 -0.20394430143014
 1  0.33576387538754  1.84710013701370 -0.35387337733773
 1  0.30308209320932 -0.94086425042504 -0.97078875287529

