%nproc=4
%Mem=2GB
# td=(NStates=1) CAM-B3LYP/6-31G(d,p) 

TD

0 1
 8  14.74037956295630 -2.16176911001100 -0.35883280628063
 8 -14.71460652465247  2.02277758285829  1.05979551055106
 6  11.24308665466546 -1.44008656075608  1.04131029202920
 6 -12.37125228922892 -1.05115673357336  0.59775341934193
 6  12.77916148214821 -1.70299959605961  1.01400629262926
 6 -13.68156487548755 -0.18274629452945  0.71268408040804
 6  13.36553459245925 -1.94319664176418 -0.45024856985699
 6 -13.42872216521652  1.32853151425143  0.88435968696870
 6  11.00457978497850 -0.27957558455846  0.07513422042204
 6 -11.30186655065507 -0.24310531743174 -0.24098177417742
 6  13.21793228422842 -0.57064554965497 -1.13909666366637
 6 -12.68272071007101  1.85131813891389 -0.29420877387739
 6  11.87757362636264  0.21463184608461 -0.96133877687769
 6 -11.49341993699370  1.01994862396240 -0.69667166316632
 6  10.99994103510351 -0.89515495649565  2.41588497249725
 6  10.46152677267727 -2.61820958895890  0.64205759575958
 6 -11.80185199119912 -1.34743443534353  1.94237036803680
 6 -12.79895639063906 -2.32695391729173 -0.10004874287429
 6  9.68634387538754  0.35599455245525  0.07382134213421
 6 -10.04860043204321 -1.01118386028603 -0.40906219121912
 6  11.59828570857086  1.27830300420042 -2.05590758075808
 6 -10.64323261126112  1.79533901100110 -1.64490138013801
 6  9.37536144114411  1.61781802480248  0.13862050205020
 6 -8.81652304930493 -0.42914486338634 -0.41267636963696
 6  8.08221732673267  2.21042702570257  0.25340611561156
 6 -7.63731176517652 -1.27789611751175 -0.57393356235624
 6  7.84356614061406  3.65168402340234  0.43688787278728
 6 -7.67179547654765 -2.77826740364036 -0.92166085108511
 6  6.90644061506151  1.53509245024502  0.10809832483248
 6 -6.43315601260126 -0.57585584748475 -0.43918284328433
 6  5.57412812681268  1.98285252325233  0.28377534653465
 6 -5.06101464746475 -1.06628370127013 -0.62437931593159
 6  4.47351613761376  1.17575376937694  0.09910782578258
 6 -3.94335563256326 -0.28282050605061 -0.40320313531353
 6  3.16708419941994  1.52770716171617  0.30604472047205
 6 -2.62538799479948 -0.78494857385739 -0.54358271327133
 6  2.82277384438444  3.00125781778178  0.76338399639964
 6 -2.39959872787279 -2.14863835583558 -0.86897812381238
 6  2.02937202620262  0.68165022902290  0.01390071007101
 6 -1.57731969196920  0.13993188218822 -0.26214016501650
 6  0.75614244324432  0.89439225322532  0.06263759175918
 6 -0.26299616961696 -0.06665426542654 -0.31299226922692
 1  13.21634021402140 -0.77099050915092  1.52460814981498
 1  13.07881138013802 -2.45518873297330  1.73516120012001
 1 -14.46235920892089 -0.67726516841684  1.30647156815682
 1 -14.20341383638364 -0.28058593049305 -0.23806566256626
 1  12.89741074807481 -2.76252555965597 -0.86151670967097
 1 -12.88032846484648  1.37135111721172  1.89552728672867
 1  13.99928451545155  0.00707328522852 -0.68761394239424
 1  13.43313887088709 -0.63563892099210 -2.29979271027103
 1 -13.32394760376038  1.85213027312731 -1.15978872187219
 1 -12.46202217521752  2.83923894399440 -0.21478044204421
 1  11.34260694969497 -1.57446587558756  3.32838753475348
 1  9.85794412141214 -0.78828862786279  2.69307606260626
 1  11.24857859985999  0.23199433233323  2.68781216721672
 1  10.53995025802580 -3.03267804180418 -0.31367805080508
 1  10.60290929382938 -3.53101174417442  1.34018345834583
 1  9.31458877587759 -2.42196350435044  0.76846356735674
 1 -11.72810449644964 -0.52266476037604  2.57999829682968
 1 -10.86015885488549 -1.93151569546955  2.00818460246025
 1 -12.47321821482148 -2.08407582748275  2.53247382738274
 1 -13.84425487448745 -2.67362605850585  0.31200933193319
 1 -11.94652988798880 -3.18858544744474 -0.12007910991099
 1 -13.09998785778578 -2.01453064496450 -1.10158290029003
 1  8.75650755375537 -0.28918332933293  0.43656077707771
 1 -10.22424718971897 -2.06371343524352 -0.57325112711271
 1  10.41455274727473  1.16771144114411 -2.42447450645065
 1  11.91351718071807  2.27343828672867 -1.70982659065907
 1  12.04225589558956  1.02036289118912 -3.06277896689669
 1 -11.11559596059606  2.06185174927493 -2.56647736873687
 1 -10.04934091209121  1.08446246534653 -1.97849381638164
 1 -10.27235141914191  2.66983963806381 -1.02022517851785
 1  14.91624075207521 -3.16619194629463 -0.01354307430743
 1 -15.22763745674567  1.50890819091909  1.70631172717272
 1  10.35803172217222  2.18793570157016 -0.11157433243324
 1 -8.45105984198420  0.53690829192919 -0.25100572657266
 1  8.85986367336734  4.20405378737874  0.53826966796680
 1  7.27330371737174  4.23373823482348 -0.43442978897890
 1  7.46419567956796  3.75392646064606  1.52554939293929
 1 -8.19980277427743 -3.41841649954996 -0.11865715471547
 1 -8.18245261626163 -2.91095109800980 -1.81020290929093
 1 -6.74460023202320 -3.32380692059206 -0.91925735973597
 1  7.01913776877688  0.45726894189419 -0.25466334133413
 1 -6.46048302430243  0.45816331143114 -0.07592271727173
 1  5.35756346134614  3.02125779777978  0.48696520552055
 1 -5.15483595459546 -2.03616129412941 -0.79935608560856
 1  4.79135232823282 -0.00987624162416 -0.05706777477748
 1 -4.12365376937694  0.83280265226523 -0.12178089708971
 1  3.78225385338534  3.23078496849685  1.57626086708671
 1  1.92690095109511  3.20414139613961  1.28711331333133
 1  2.96926230623062  3.78555518051805  0.01143808580858
 1 -2.69626074107411 -2.97665995799580 -0.33518118311831
 1 -2.70840955395539 -2.35312237423742 -1.97676641864186
 1 -1.33201358635864 -2.38342589258926 -0.86227477047705
 1  2.28396975997600 -0.12505578657866 -0.30677688968897
 1 -1.86237086008601  1.06662490649065  0.25988208120812
 1  0.53739403840384  2.04091951895189  0.56124813481348
 1  0.20020180518052 -1.01261142514251 -0.47831950595060

