%nproc=4
%Mem=2GB
# td=(NStates=1) CAM-B3LYP/6-31G(d,p) 

TD

0 1
 8  14.71474699969997 -2.32873580668067 -0.33492041504150
 8 -14.81591665566557  1.89049435453545  0.75787531853185
 6  11.13812615861586 -1.45278783088309  0.92097825882588
 6 -12.49213437743774 -0.99166078397840  0.53619726372637
 6  12.55511907790779 -1.83586288238824  0.95046993899390
 6 -13.75548226722672 -0.19344736463646  0.55363817581758
 6  13.32554059305931 -1.82548487058706 -0.39371291629163
 6 -13.58840813381338  1.24751341244124  0.85015626662666
 6  11.04736406340634 -0.20070769776978 -0.12539583258326
 6 -11.34719108310831 -0.27499850675067 -0.33306098209821
 6  13.40148063906391 -0.40939942504250 -0.96925967996800
 6 -12.69187162516252  1.86460946804680 -0.21977133013301
 6  12.00722659165917  0.14306468936894 -0.85930857385739
 6 -11.48473906890689  1.00802743184318 -0.66112810881088
 6  10.69570061106111 -1.13672911391139  2.33141652565257
 6  10.27635825582558 -2.62281004900490  0.39343273327333
 6 -11.89793159915992 -1.37641733363336  1.83142927392739
 6 -12.85616211121112 -2.26282750465047 -0.27431616961696
 6  9.71438667966797  0.38733768676868 -0.03953999399940
 6 -10.02849842184219 -0.94760750265027 -0.50872215721572
 6  11.83069894989499  1.27316249014901 -1.93987597759776
 6 -10.44179246724672  1.76633611071107 -1.52117900790079
 6  9.39528343334334  1.71835807880788 -0.10828418841884
 6 -8.75483688068807 -0.40957290619062 -0.30404550655066
 6  8.04552365736574  2.30273625662566  0.11125190019002
 6 -7.54625265926593 -1.23350167806781 -0.46656282528253
 6  7.94666645064506  3.72655151015101  0.44375855985599
 6 -7.66550484748475 -2.59866944384438 -0.78918760376038
 6  6.83933390439044  1.64758369936994  0.04078159315932
 6 -6.31270396739674 -0.60825908780878 -0.36450537553755
 6  5.58008872287229  2.06610084808481  0.20586755575558
 6 -5.06078462446245 -1.14421149404941 -0.45161203920392
 6  4.54357314331433  1.20497669166917  0.12045996099610
 6 -3.84174547154715 -0.43360558455846 -0.24403721872187
 6  3.07675516651665  1.58912330333033  0.22520663666367
 6 -2.55572102810281 -0.88775885488549 -0.27180553555356
 6  2.76295786278628  3.08620631263126  0.65453311131113
 6 -2.28227699569957 -2.33849734173417 -0.56386761276128
 6  2.09190827982798  0.70838290229023 -0.04052473247325
 6 -1.48544050405041  0.04385227422742  0.01249729872987
 6  0.70306713571357  0.93496631063106  0.11991331933193
 6 -0.20351022102210 -0.11496909690969 -0.06181715171517
 1  13.07268584858486 -1.15234864496450  1.50589627862786
 1  12.82333583258326 -2.94295750985099  1.40963864786479
 1 -14.41166413941394 -0.46156359825983  1.46803772477248
 1 -14.42015551055106 -0.22417028892889 -0.27109896589659
 1  12.78848985598560 -2.64667397449745 -1.11361191919192
 1 -13.10962139413941  1.29384336643664  1.75290302430243
 1  14.12206679367937  0.19655223312331 -0.31815699669967
 1  13.64427998499850 -0.45836119321932 -2.13780651165116
 1 -13.22539774877488  1.77883294339434 -1.20858360136014
 1 -12.33022899589959  2.80186520662066  0.19961099709971
 1  11.04884757375738 -1.96147457645765  3.00085478147815
 1  9.55912423942394 -1.02497229622962  2.19841659665967
 1  11.21330507250725 -0.30738960606061  2.84974836083608
 1  10.59748601160116 -2.88572334633463 -0.53758044104410
 1  10.58003700660066 -3.36886552955296  1.14088352835284
 1  9.17004432143214 -2.21549285728573  0.49319604060406
 1 -11.59373105910591 -0.44390688458846  2.50302059905991
 1 -11.01258409740974 -1.99177172107211  1.77060084408441
 1 -12.69521041404140 -1.78377579747975  2.39967054705471
 1 -13.65492594159416 -2.78070676657666  0.09668779977998
 1 -11.99477471247125 -3.06180276917692 -0.44946204820482
 1 -13.18854671367137 -2.09063825572557 -1.13903664566457
 1  8.76955885888589 -0.39748415941594 -0.09584246324632
 1 -10.06938170317032 -1.83787085098510 -0.59523332533253
 1  10.76019731173117  1.64153882388239 -2.23487554655466
 1  12.12729855885589  2.19239018191819 -1.46504211221122
 1  12.30156182618262  0.91531238613861 -3.00356304530453
 1 -10.94655905690569  2.40708627272727 -2.15087580858086
 1 -9.86848282628263  1.12940695979598 -1.97480344734473
 1 -9.85341952595259  2.28315096919692 -0.75341849784979
 1  14.70451957995800 -3.18583391049105  0.00474875487549
 1 -15.11853654665466  1.78816611671167  1.80296139213921
 1  10.25813173217322  2.38535544354435 -0.10171334633463
 1 -8.65573030903090  0.61173577467747  0.04533390739074
 1  8.88471615861586  4.28594197619762  0.91294713571357
 1  7.33965035203520  4.35187004800480 -0.19113545954595
 1  7.37927718771877  3.93375444344434  1.59796663466347
 1 -8.11408420242024 -3.18520317821782  0.02899761076108
 1 -8.46082045304530 -2.65554555745575 -1.56627851685169
 1 -6.80016578857886 -3.19981452135213 -1.34143957795780
 1  6.94106996199620  0.64186740174017 -0.28015589058906
 1 -6.38089506550655  0.43610110521052 -0.01272639763976
 1  5.39632733773377  3.24510018201820  0.17718422742274
 1 -5.08559903090309 -2.16075375337534 -0.64031018101810
 1  4.75179837283728  0.09480422642264 -0.15112718071807
 1 -4.02093349734974  0.53849322132213 -0.08678739773977
 1  3.38132376037604  3.31121301130113  1.53902714371437
 1  1.73279154015402  3.34153513551355  0.86627122912291
 1  3.35402078207821  3.77838446344634 -0.07285034303430
 1 -2.91503261826183 -3.21872416441644  0.10670300530053
 1 -2.17474618761876 -2.43978104010401 -1.84008275027503
 1 -1.18120850585059 -2.39214676467647 -0.38946748974897
 1  2.41425278827883 -0.24472775377538 -0.35993220522052
 1 -1.80976559955996  1.07759600360036  0.14940103310331
 1  0.13712401140114  2.02459788678868  0.23858586858686
 1  0.29914169916992 -1.10924108810881 -0.40936261026103

