%nproc=4
%Mem=2GB
# td=(NStates=1) CAM-B3LYP/6-31G(d,p) 

TD

0 1
 8  14.62768829382938 -2.30699363246325 -0.40115703870387
 8 -14.82333739773977  1.83590889598960  0.70460999199920
 6  11.05258760476048 -1.56374892699270  0.93160932193219
 6 -12.33161832583258 -1.06205782368237  0.74130777477748
 6  12.62712627862786 -1.96715601170117  0.98612350435044
 6 -13.63408012701270 -0.36764478437844  0.67304011601160
 6  13.23613165216522 -2.04105642774277 -0.39941348634863
 6 -13.61602089508951  1.17548620972097  0.85567681868187
 6  10.89579890689069 -0.32521014801480  0.01045775277528
 6 -11.27756412041204 -0.30946195309531 -0.12974065006501
 6  13.18541903290329 -0.63581206630663 -1.04872762676268
 6 -12.80653309130913  1.60047305440544 -0.31918127112711
 6  11.84439030803080  0.05797618051805 -0.81549419241924
 6 -11.53535413041304  0.91232786188619 -0.61949394539454
 6  10.65412645364536 -1.23526896789679  2.32443582758276
 6  10.20037065706571 -2.83777154515452  0.44869825982598
 6 -11.78058986498650 -1.38703839573957  2.03894002500250
 6 -12.53971046604661 -2.46503772567257  0.16918818081808
 6  9.62492773377338  0.33600255325533  0.18377233723372
 6 -9.97673324532453 -0.96644938683868 -0.35831711671167
 6  11.66457233723372  1.27281245514551 -1.67361935193519
 6 -10.64867315531553  1.69384886198620 -1.54296118611861
 6  9.34623852885289  1.70636687968797  0.29437607760776
 6 -8.79730112711271 -0.47268921782178 -0.36743184518452
 6  8.08000710571057  2.34721070407041  0.28473924892489
 6 -7.49773780778078 -1.19730805870587 -0.59054522352235
 6  8.01939372337234  3.82114096909691  0.63859804380438
 6 -7.51627992499250 -2.66126570347035 -0.86341502650265
 6  6.94460443144314  1.52960190119012  0.08726624162416
 6 -6.32759545654565 -0.52923118501850 -0.30043896889689
 6  5.67525823982398  2.10824506250625  0.27784475347535
 6 -5.01969051505151 -1.00748782168217 -0.59533641164116
 6  4.51838062406241  1.39666586058606 -0.15147723272327
 6 -3.91321261826183 -0.17133935793579 -0.44887770277028
 6  3.23572106310631  1.82638702970297  0.04352846884688
 6 -2.57953340934093 -0.54574465346535 -0.41955031003100
 6  2.95096666366637  3.29846753875387  0.41045870387039
 6 -2.35740450845085 -2.08987247924792 -0.69659088508851
 6  2.09662875187519  0.94674673867387 -0.20290097009701
 6 -1.50229218921892  0.29467735673567 -0.18027197819782
 6  0.71872870187019  1.12196501050105 -0.20739941194119
 6 -0.11701157115712  0.06018841884188 -0.33707467746775
 1  13.09506808680868 -1.11886529662966  1.50423611261126
 1  12.80983448244825 -2.93382659675968  1.55041272527253
 1 -14.19120209320932 -0.82863030493049  1.42796371737174
 1 -14.06070956595660 -0.61944981688169 -0.20019187518752
 1  12.70013102010201 -2.71684099119912 -1.10060061806181
 1 -13.10421085308531  1.38700268236824  1.89606734073407
 1  14.10121470847085 -0.15971339343934 -0.67667284828483
 1  13.32184774177418 -0.86563192029203 -2.18849158015802
 1 -13.37289249824982  1.44266932703270 -1.22637538053805
 1 -12.66603257625763  2.90503552365237 -0.29290825482548
 1  11.13627631663166 -2.19645807480748  2.79129382538254
 1  9.55153348034803 -1.08764856385639  2.66838359335934
 1  11.11453519551955 -0.32502136923692  2.59800318631863
 1  10.36060232323232 -3.16914168816882 -0.55434211721172
 1  10.33016201910191 -3.57261590459046  1.22653209320932
 1  9.07733505050505 -2.69321062906291  0.57558427942794
 1 -11.80892257825783 -0.42509500340034  2.61650194719472
 1 -10.77471031003100 -1.49903244714471  1.98793257725773
 1 -12.39781067406741 -2.14910233013301  2.57796837683768
 1 -13.37217766676668 -2.94764346024602  0.89036716771677
 1 -11.67601283628363 -3.01597818671867  0.16902980098010
 1 -13.00209806880688 -2.30007919981998 -0.85697843984398
 1  9.00443234623462 -0.54509892089209  0.26058317931793
 1 -10.13162792779278 -2.05643270717072 -0.66149995199520
 1  10.53392468446845  1.60163483348335 -1.85543760276028
 1  12.03966979597960  2.18325926882688 -1.04623023102310
 1  12.35505717571757  1.33413426832683 -2.61803449244925
 1 -11.25230963196320  2.39109467356736 -2.14995571657166
 1 -10.09008498649865  0.99067308640864 -2.26195216221622
 1 -9.93452763676368  2.20507316141614 -1.12263541954195
 1  14.56061518951895 -3.25182050915091  0.09408768876888
 1 -15.42662735573557  1.46123342344234  1.28614971097110
 1  10.08456437543754  2.36047295529553  0.21501832683268
 1 -8.67040177617762  0.71594619571957 -0.13974460046005
 1  9.06691437843784  4.10609399139914  0.52324816581658
 1  7.40331671867187  4.25905076607661 -0.07363370937094
 1  7.71975123512351  4.02359342734273  1.62114895289529
 1 -7.41674446844685 -3.63516817471747 -0.04213950295029
 1 -8.36046041704170 -2.89847985088509 -1.51792368136814
 1 -6.56115188718872 -2.98165270517052 -1.46083151715172
 1  6.93386924192419  0.55433864886489 -0.22011988698870
 1 -6.37270424642464  0.51510900600060 -0.01850697569757
 1  5.67169487448745  3.09852552455246  0.82583909290929
 1 -4.87577804880488 -1.97616529452945 -0.88049419941994
 1  4.67031022402240  0.45403014901490 -0.49223129112911
 1 -3.93948535253525  0.80267963996400 -0.06416513551355
 1  3.37265289328933  3.30709259925993  1.45075831683168
 1  1.82038029902990  3.47540852285229  0.61556615861586
 1  3.33316869686969  4.17774439943994 -0.18766182418242
 1 -2.95974708970897 -2.61149344134413  0.00799313431343
 1 -2.61490020302030 -2.23740080208021 -1.73605234723472
 1 -1.41406179117912 -2.44988253825383 -0.84529307230723
 1  2.56720808380838  0.01954867386739 -0.56800301230123
 1 -1.77241186418642  1.35920416441644 -0.33628753575358
 1  0.32989328832883  2.14535996299630  0.27297930793079
 1  0.29360114511451 -0.89459962396240 -0.70002167616762

