%nproc=4
%Mem=2GB
# td=(NStates=1) CAM-B3LYP/6-31G(d,p) 

TD

0 1
 8  14.61635716071607 -2.39904283738374 -0.27012393539354
 8 -15.01594665866587  1.72605791089109  0.68561809280928
 6  11.09641198719872 -1.55555810791079  0.94396055705571
 6 -12.45702086608661 -1.14206582448245  0.46603024702470
 6  12.59024259025903 -2.06538583468347  0.93909880188019
 6 -13.77718443744374 -0.40618863876388  0.34392720472047
 6  13.29527756675668 -1.92046436853685 -0.35857940294029
 6 -13.67036632963296  1.07336599769977  0.71297254825483
 6  10.94700402740274 -0.32220984798480 -0.14230752375238
 6 -11.29655601960196 -0.33343435033503 -0.14333200920092
 6  13.34123461446145 -0.67069555465547 -0.93357611161116
 6 -12.77145958395839  1.68411141824182 -0.38716806980698
 6  11.98478434743474  0.08281866476648 -0.99908255125513
 6 -11.43416401140114  0.95767239633963 -0.61042303830383
 6  10.52736377737774 -1.24706014701470  2.24903828782878
 6  10.21242186218622 -2.71482925092509  0.32000539053905
 6 -12.00403220922092 -1.45411510341034  1.98055418641864
 6 -12.61577807280728 -2.52317353925393 -0.28622736073607
 6  9.71273651465146  0.33084203720372  0.15554951495150
 6 -9.99127469946995 -1.03273601550155 -0.34371565656566
 6  11.74447032703270  1.19356453035304 -1.90766275627563
 6 -10.45455374337434  1.82034151125112 -1.44507139713971
 6  9.44595850085009  1.61307755075508 -0.07156051605161
 6 -8.71427282428243 -0.39169111801180 -0.16572167416742
 6  8.16413551855185  2.26549253225323  0.17276805180518
 6 -7.57039507350735 -1.17988631653165 -0.29859602860286
 6  8.14112589658966  3.77662651765177  0.46974115811581
 6 -7.63703200020002 -2.68703828072807 -0.45175386038604
 6  6.93651362236224  1.57355629662966  0.05025254025403
 6 -6.29684238123812 -0.50731899379938 -0.19346827182718
 6  5.63970468446845  2.15834007200720  0.20783775277528
 6 -4.99680822682268 -0.99762683558356 -0.37580445844584
 6  4.55474426042604  1.41977817181718 -0.05715780078008
 6 -3.92217351435143 -0.14592681668167 -0.24997781278128
 6  3.12336982798280  1.85863025402540  0.21764588058806
 6 -2.55720117611761 -0.57726780578058 -0.41351970697070
 6  2.98114968196820  3.28467615961596  0.58974663266327
 6 -2.24817358535854 -1.94844833683368 -0.84986621262126
 6  2.15514460346035  0.93218528252825 -0.00646132613261
 6 -1.52930489048905  0.28337622662266 -0.06948089908991
 6  0.83739056805681  1.16190900490049  0.07403873187319
 6 -0.14616448644864  0.20643304330433 -0.14201517151715
 1  13.24733331333133 -1.65779919001900  1.60883657265727
 1  12.40339383838384 -3.12097531163116  1.39200688468847
 1 -14.63706667966797 -0.93235067696770  1.07501842284228
 1 -13.98808230323032 -0.68970684258426 -0.69554141014101
 1  12.73180418741874 -2.64423373047305 -1.15264582258226
 1 -13.24777520952095  1.26232021412141  1.82431016501650
 1  14.04254884188419  0.03897647554756 -0.30286546754675
 1  13.88092364936494 -0.71242659975998 -1.82418514951495
 1 -13.59347455645564  1.71264632473247 -1.11669441244124
 1 -12.70607658065807  2.87449246934694 -0.08404736873687
 1  10.60967365636564 -1.98109653865387  2.93769846584658
 1  9.50844917191719 -1.01074087308731  2.16187294229423
 1  10.79154289628963 -0.07429629672967  2.49058244424442
 1  10.49802606560656 -3.19276405040504 -0.67695437843784
 1  10.07534653755375 -3.61865050805081  1.02402184218422
 1  9.32362967996800 -2.28537984598460  0.02003872487249
 1 -11.94334602060206 -0.51153364726473  2.36565686268627
 1 -11.08950178917892 -2.11298384228423  1.82552633663366
 1 -12.77816870987099 -2.02806022592259  2.37266784678468
 1 -13.45088553755376 -3.13903259915992  0.15071320232023
 1 -11.52383761876188 -3.10231682058206 -0.01311841384138
 1 -12.65778363736374 -2.35881507340734 -1.44296703870387
 1  8.92719462246225 -0.42889730073007  0.55873299429943
 1 -10.00874563956396 -2.08827589148915 -0.26584038603860
 1  10.65324661666167  1.26353102310231 -2.16288834783478
 1  12.08867469646965  2.41162210511051 -1.64051965996600
 1  12.19855152515252  1.16834768966897 -2.88549123812381
 1 -10.88053245424542  2.16579214331433 -2.22288300930093
 1 -9.69807578557856  1.16508052715272 -1.92204817181718
 1 -10.05410959495950  2.83140579467947 -1.16595975197520
 1  14.50591971997200 -3.40953628072807 -0.15784750475048
 1 -15.73326801980198  1.53269056915692  1.23547464346435
 1  10.34279019801980  2.30506741474147 -0.06592976797680
 1 -8.50829556555655  0.66030063116312 -0.13836446244624
 1  9.09510719771977  4.20074345634563  0.89470531153115
 1  7.89637602460246  4.42844770577058 -0.50888723472347
 1  7.23352261226123  3.90116118411841  1.05649248724873
 1 -8.36649944394440 -3.22246690459046  0.23515822682268
 1 -7.89041341234123 -3.10590059295930 -1.51302319131913
 1 -6.68221399339934 -3.27589212911291 -0.39233466746675
 1  6.91985784078408  0.53761697669767 -0.24221209620962
 1 -6.50307728372837  0.64937243234323 -0.17124224922492
 1  5.55572327732773  3.22081775377538  0.61034754375438
 1 -5.03853432443244 -2.16933461146115 -0.57683383338334
 1  4.83113630663066  0.42983772977298 -0.27079914791479
 1 -4.22937434143414  0.78168754075408  0.10787206820682
 1  3.47832346034603  3.60654254425443  1.66554979597960
 1  1.93538179917992  3.48875985798580  0.51034563656366
 1  3.43285866586659  4.04980160516052 -0.00220327832783
 1 -2.31806292129213 -2.65241753375338  0.15028736373637
 1 -3.25708442144214 -2.30679774177418 -1.44257299929993
 1 -1.18721910691069 -2.15680323032303 -1.30535907890789
 1  2.43140450345035  0.05457217621762 -0.17499371137114
 1 -2.03367799079908  1.35295353935394  0.07347344034403
 1  0.19419971897190  2.11814724172417  0.47180919091909
 1  0.08935072007201 -0.76225638963896 -0.54452612661266

