%nproc=4
%Mem=2GB
# td=(NStates=1) CAM-B3LYP/6-31G(d,p) 

TD

0 1
 8  14.60504602960296 -2.34740767386739 -0.44576149914992
 8 -14.85024008800880  1.93170847594759  0.85782531353135
 6  11.20494284028403 -1.45981853395340  0.95436159715972
 6 -12.24936010001000 -1.09108072597260  0.63202684668467
 6  12.64884845084508 -1.96310560666067  0.93244813681368
 6 -13.64936165516552 -0.27034505440544  0.71830464246425
 6  13.17815585458546 -1.94086640874087 -0.40819436443644
 6 -13.54171346434643  1.27941660276028  0.84729598059806
 6  10.88503783078308 -0.34724235123512 -0.05584887788779
 6 -11.27836420042004 -0.31550255715572 -0.24561223722372
 6  13.16287677867787 -0.57928641374137 -1.03428618261826
 6 -12.79613205120512  1.70739374647465 -0.43633298629863
 6  11.85110097909791  0.03274365726573 -0.95853849684969
 6 -11.47729832483248  0.91720834993499 -0.68007000300030
 6  10.72841388238824 -1.01329677067707  2.44212759675968
 6  10.35426604660466 -2.67501526952695  0.45928931893189
 6 -11.73277508350835 -1.33272296419642  2.07906403740374
 6 -12.64195069006901 -2.44880610251025  0.02452371437144
 6  9.57954319531953  0.36243519651965  0.16703066306631
 6 -9.97011258325833 -0.99987272917292 -0.37285857085709
 6  11.69306518651865  1.18064323822382 -1.95535752575258
 6 -10.72350063806381  1.68245772287229 -1.64860175017502
 6  9.32316622162216  1.61760800380038  0.09148578857886
 6 -8.71593299029903 -0.34073602250225 -0.40899600160016
 6  8.00905001000100  2.24630061306131  0.35671644664466
 6 -7.51391942594259 -1.20934926282628 -0.57776394539454
 6  8.02718450245025  3.75861471647165  0.72523670767077
 6 -7.58996729372937 -2.64365394229423 -0.87159584458446
 6  6.87855782678268  1.51318025902590  0.10858837383738
 6 -6.24384708170817 -0.54710297219722 -0.46867579257926
 6  5.61744245824582  2.10468470647065  0.24305127412741
 6 -5.00338888488849 -1.17011408430843 -0.49614649264927
 6  4.41664045004500  1.34226042004200  0.04877279227923
 6 -3.84804610161016 -0.31428365236524 -0.31894470947095
 6  3.14200169116912  1.82426681768177  0.22733684968497
 6 -2.51493694969497 -0.73086316531653 -0.44542289728973
 6  2.78211977897790  3.20685837783778  0.52268992699270
 6 -2.26092486048605 -2.13161665366537 -0.83642486848685
 6  2.15443453245325  0.84082614661466 -0.02252293229323
 6 -1.50525248524852  0.25893378237824 -0.19079303030303
 6  0.78347517651765  1.02494530853085  0.07411873987399
 6 -0.15046491649165  0.06465886588659 -0.22962393239324
 1  13.19883846384638 -1.17476088618862  1.51695738473847
 1  12.60627412641264 -3.03251646574657  1.45712339633963
 1 -14.31162413541354 -0.76585402730273  1.61505242624262
 1 -14.16264975997600 -0.43138101000100 -0.19859171517152
 1  12.65424643164316 -2.77011631873187 -0.95393595159516
 1 -13.01314174617462  1.42587656975698  1.79172690669067
 1  14.00453504050405  0.04274685258526 -0.70042522352235
 1  13.56323188018802 -0.68332368946895 -1.91420415141514
 1 -13.63025823482348  1.53991905200520 -1.19873261626163
 1 -12.53392936593659  2.76613163326333 -0.34178314231423
 1  11.11979466846685 -1.94733316231623  3.01940663666367
 1  9.63197152415241 -0.85430522952295  2.40304705970597
 1  10.88008175017502  0.15900703360336  2.89928331433143
 1  10.58983524652465 -2.95526030003000 -0.50757744074407
 1  10.57098610151015 -3.42151079407941  0.98404784478448
 1  9.36286360336033 -2.33352466046605  0.45387210821082
 1 -11.77693937993799 -0.40461295519552  2.75619591659166
 1 -10.78031087008701 -1.93145568946895  2.24971875587559
 1 -12.50346123912391 -2.05733315321532  2.64971555155516
 1 -13.48126857585759 -2.82265096099610  0.60009814081408
 1 -11.69936517151715 -3.13185977487749 -0.21769887188719
 1 -12.79563742274227 -2.32920211211121 -1.20360310231023
 1  8.73878578157816 -0.31957636863686  0.36622374337434
 1 -10.06329109410941 -1.98066513041304 -0.36150995299530
 1  10.64089538153815  1.48731340134013 -2.17548960796080
 1  12.05896172517252  2.26060700360036 -1.74313992199220
 1  11.97003867386739  0.93581443634363 -2.95062775177518
 1 -11.40959536053605  1.96858242234223 -2.52552327332733
 1 -9.97794377237724  1.02580659975998 -1.87496346334634
 1 -10.15691987598760  2.55287794189419 -1.29239239523952
 1  14.74999412741274 -3.20844617171717 -0.13120484048405
 1 -15.43699839283928  1.46167346744675  1.45689678567857
 1  10.17410332933293  2.23686059405941  0.02810963596360
 1 -8.63637837383738  0.80987558865887 -0.20578120412041
 1  9.07677536453645  4.16884026602660  0.68682452345235
 1  7.66147253425342  4.32540740174017 -0.26775312131213
 1  7.42179143914391  4.12604367236724  1.75893273127313
 1 -8.11920471447145 -3.13770842874287 -0.06859214821482
 1 -8.25201957295730 -2.71581158405841 -1.76636852585259
 1 -6.71364713671367 -3.17928246814681 -0.98411384538454
 1  6.95170102510251  0.52502571757176 -0.26100397539754
 1 -6.48833580958096  0.55433292839284 -0.34298942394239
 1  5.50315802080208  3.14094976697670  0.48253476247625
 1 -4.60151062206221 -2.01908958695870 -0.92337848784878
 1  4.59226241924192  0.32384713071307 -0.20503257125712
 1 -4.06067747174717  0.75250462246225 -0.03422214121412
 1  3.26220184818482  3.50717260726073  1.52160540154015
 1  1.76776503750375  3.35957693969397  0.55587018901890
 1  3.22231761176118  4.06405303030303 -0.00973403140314
 1 -2.29658077307731 -2.84192648464846  0.10487282228223
 1 -2.86099481248125 -2.42742980498050 -1.56603534553455
 1 -1.22986337133713 -2.27346489648965 -1.00072861586159
 1  2.32781414441444 -0.23058633963396  0.01186497449745
 1 -2.07877250025002  1.37022526652665  0.10203629662966
 1  0.19443974297430  2.05786121312131  0.39668167816782
 1  0.16067785278528 -0.88595875987599 -0.88693036703670

