%nproc=4
%Mem=4GB
# td=(NStates=1) B3LYP/SVP 

TD

0 1
 8 -4.43403352415242 -4.63735381658166  1.97611297489749
 8  2.90592119021902 -4.75390994019402  1.42447037883788
 8  7.12858323972397 -1.43139068016802  1.83534375487549
 8  3.68810054285429 -3.01010013521352  0.16404926332633
 8  7.58993774577458 -0.69220059935994 -0.24233380268027
 8 -3.09228955775578  2.45081247874787 -0.42495740034003
 7 -0.20173455515552 -0.60421977177718 -0.56171480768077
 7  1.58188587128713  1.77063944274427 -0.41372303440344
 7 -3.49624656765677 -3.13935298209821  0.43286175747575
 7 -0.73830523342334  2.84993541174117 -0.14694971887189
 6  0.66313754615462 -2.48964440274027 -1.43627571067107
 6  0.96326526032603 -1.19475942704270 -0.96982953825383
 6 -0.78079240434043 -2.52818670807081 -1.31121132053205
 6 -1.35824793099310 -1.41058470037004 -0.78107957385739
 6  3.80815875717572  1.41376586188619 -0.30127634403440
 6  2.51826251925193  0.77205853765377 -0.57540909950995
 6  2.25309231353135 -0.46793293909391 -0.89938218321832
 6  3.63310714761476  2.74236224442444  0.07455668276828
 6  1.63480463296330 -3.51764703050305 -1.92994319531953
 6 -5.63934326952695 -2.55999790939094  1.36026596659666
 6 -3.64620668356836 -1.74006906890689  0.08433221822182
 6  2.13327758795880  2.88538496669667 -0.04379185618562
 6 -5.11877807410741 -1.53753925712571  0.32579121802180
 6  5.12436091419142  0.65507517751775 -0.47619067546755
 6 -2.68036899909991 -1.01487825942594 -0.46779719411941
 6 -1.58742668036804 -3.81323582588259 -1.70261350505050
 6 -4.50183765056506 -3.55287379307931  1.32997211181118
 6  2.08284876087609 -4.55551777147715 -0.78040089588959
 6  5.47171704800480 -0.13072913681368  0.82606071217122
 6  4.56570235643564  3.83002423372337  0.33727591139114
 6  1.32761400280028  4.05568997649765  0.31508162766277
 6 -6.85151628222822 -3.06297367716772  1.18349781588159
 6 -5.80982958545855 -0.56297102700270 -0.23187466186619
 6 -0.07753274227423  3.99687435903590  0.25321394699470
 6 -0.95789675137514  5.08181927492749  0.60712534113411
 6 -2.17055238143814  4.60530665346535  0.30532193509351
 6  3.03201604290429 -3.98938555765577  0.25541694069407
 6 -5.47600226102610  0.54570979957996 -1.27078814581458
 6  6.82588515471547 -0.77118540264026  0.72827595019502
 6 -3.57681344064406  5.32957925612561  0.43143395849585
 6 -2.11807524382438  3.17414960626063 -0.11633070827083
 6 -0.47461159865987  6.36829069706971  1.11135622542254
 6 -4.38641717861786  5.49566797169717 -0.81726250195019
 1 -0.11990955585559  0.40835654125413 -0.24680523382338
 1  3.19717373197320 -0.98069007110711 -1.09680918951895
 1  2.53727497839784 -2.99373408030803 -2.37226966166617
 1  1.04160093939394 -4.18128004560456 -2.60716308280828
 1 -5.52172397859786 -2.02695108420842  2.30828298879888
 1  5.01115142534253 -0.04509979347935 -1.41305445844584
 1  5.95965793139314  1.27454176347635 -0.57642894249425
 1 -2.71903999969997  0.06648114431443 -0.68988189378938
 1  0.58315464716472  1.93192437543754 -0.41901137323732
 1 -1.57466305750575 -4.80511261546155 -1.01940274597460
 1 -2.62373600330033 -3.49127682968297 -2.01907122732273
 1 -1.21522147324732 -4.06257443184318 -2.73129673267327
 1 -2.59788354615462 -3.64312046044604  0.30582782978298
 1  1.15579138583858 -4.85136761926193 -0.21453517101710
 1  2.55438462426243 -5.32446515501550 -1.25500001390139
 1  4.81900632163216 -0.88205425652565  0.91418200440044
 1  5.52884708430843  0.26483091969197  1.88471294199420
 1  4.40002752305231  4.60975144254425 -0.27880786348635
 1  5.59811643444344  3.57612033123312  0.00327685088509
 1  4.39701911931193  4.16427193529353  1.42614391829183
 1  1.93201903390339  4.85547547714771  0.64320410731073
 1 -7.66030880248025 -2.25111110561056  1.25905059905991
 1 -7.04030967526753 -3.95869363526353  1.95229759765977
 1 -7.07940612461246 -3.51975973947395  0.07605919511951
 1 -6.81159850155015 -0.62792312361236  0.05977790569057
 1 -4.92161700350035  1.39405360226023 -0.75413926202620
 1 -6.63602543224322  0.92383001130113 -1.69221590009001
 1 -4.72786128162816  0.24850169636964 -1.97791900460046
 1 -3.48010789008901  6.23513616941694  1.00130783478348
 1 -4.15748342584258  4.62079121132113  1.25864800260026
 1  0.05224979027903  6.31750371027103  1.91719445194519
 1 -1.29412079537954  7.11248794429443  1.26543579998000
 1  0.26994618221822  6.85367386788679  0.31542787698770
 1 -3.91106140194019  6.21130701380138 -1.65315313141314
 1 -5.28017984108411  5.98272101310131 -0.71478662036204
 1 -4.62568708980898  4.65178667096710 -1.22759249764976
 1  3.73292859935994 -4.42658688888889  1.99820845784578
 1  8.06068331303130 -1.81404205650565  1.58060822342234

