%nproc=4
%Mem=4GB
# td=(NStates=1) B3LYP/SVP 

TD

0 1
 8 -4.53843396419642 -4.73773385458546  1.92686805040504
 8  2.79593019111911 -4.61565611481148  1.44755268706871
 8  6.98881926332633 -1.49141668276828  1.90523074357436
 8  3.68246997979798 -2.99378850405041  0.18259111751175
 8  7.61010976297630 -0.72941432073207 -0.17992756205621
 8 -3.07401773057306  2.64912230973097 -0.32301720632063
 7 -0.33583796549655 -0.62409175897590 -0.67331596779678
 7  1.53641132383238  1.78690106890689 -0.45021668376838
 7 -3.40718766176618 -3.13688273507351  0.55153362466247
 7 -0.67430883378338  2.93801421962196 -0.15875089898990
 6  0.65654688708871 -2.46661209950995 -1.45815789888989
 6  0.90029896369637 -1.19252920402040 -1.01692424772477
 6 -0.63847817291729 -2.74902879227923 -1.34726492589259
 6 -1.31821392759276 -1.49606324822482 -0.87683914981498
 6  3.77185512681268  1.34454894019402 -0.40896711311131
 6  2.44764545754575  0.82301363316332 -0.66063762236224
 6  2.23383038733873 -0.48510465626563 -0.99563180818082
 6  3.58788262516252  2.67004501270127 -0.01045181808181
 6  1.68195934843484 -3.40811607740774 -1.96823702470247
 6 -5.54616395159516 -2.56191810141014  1.43702364236424
 6 -3.66968903180318 -1.86728179017902  0.06067985298530
 6  2.08602286248625  2.93465989418942 -0.02224970197020
 6 -5.03178937523752 -1.54376988018802  0.36892553145315
 6  5.13209168726873  0.66460613061306 -0.48598165456546
 6 -2.60311127332733 -1.07411418301830 -0.54364477887789
 6 -1.42948088578858 -3.96627112941294 -1.82271551525153
 6 -4.46017348414842 -3.61145965166517  1.42340145474547
 6  2.13014349034904 -4.55810803050305 -0.83703655945595
 6  5.38285816211621 -0.16350241414141  0.76528463456346
 6  4.54900068626863  3.73406463776378  0.36090827462746
 6  1.37674891629163  4.09902430993099  0.31254137363736
 6 -6.96889802040204 -3.17518489828983  1.17770723682368
 6 -5.84025262776278 -0.59038376827683 -0.15588706310631
 6  0.02741775277528  4.04483915551555  0.25808443404340
 6 -0.93632459415942  5.18484957795780  0.48481310991099
 6 -2.18494382058206  4.77232335513551  0.32137354025403
 6  2.92253509480948 -3.87125374447445  0.33104450345035
 6 -5.48061272207221  0.31810703930393 -1.22497356435644
 6  6.78025059125913 -0.75574385848585  0.76550967356736
 6 -3.53216897619762  5.26237253545355  0.57332814791479
 6 -2.05931936823682  3.29068125942594 -0.05472454765477
 6 -0.48194233173317  6.55292916091609  1.05460054985499
 6 -4.26352488938894  5.72644104900490 -0.80150092579258
 1 -0.40964852975298  0.31770747634763 -0.22793334663466
 1  2.88212222682268 -1.25131713381338 -1.16758626722672
 1  2.58983023392339 -3.04284899179918 -2.31055349004901
 1  1.36844362366237 -3.98105002260226 -2.88652101860186
 1 -5.62385419161916 -2.01935032413241  2.19444160466047
 1  4.99852016221622 -0.09171445494549 -1.36734988798880
 1  5.99095106070607  1.28577288658866 -0.35800710031003
 1 -2.72798089378938  0.02252674887489 -0.32103500910091
 1  0.59085541724172  1.72719390239024 -0.39845931803180
 1 -1.30979657085709 -4.83485558975898 -1.17708851455146
 1 -2.50670430013001 -3.73289099109911 -1.92415173537354
 1 -0.89027897899790 -4.24686286068607 -2.84548815181518
 1 -2.61630538833883 -3.73626977537754  0.29255650265026
 1  1.25378118481848 -5.11666414891489 -0.34520823832383
 1  2.88186737253725 -5.43506621512151 -1.10173468736874
 1  4.69929435043504 -0.99383543464346  0.98301888808881
 1  5.24858905850585  0.54667910451045  1.76428089878988
 1  4.10992851315132  4.89461992939294  0.09960997829783
 1  5.64868149094910  3.83986670587059 -0.16180965776578
 1  4.64891430883088  3.81345685378538  1.59976128002800
 1  2.06085191719172  4.79413934353435  0.56688647554755
 1 -7.64981775337534 -2.40562655715572  1.48480317431743
 1 -7.23814945924592 -3.95891365726573  1.82676504440444
 1 -7.04233241724172 -3.52916067956796  0.23091468066807
 1 -6.78074541624162 -0.62065239653965  0.13041496939694
 1 -4.91598644044404  1.18128232513251 -0.87222107020702
 1 -6.33007483718372  0.77841546984698 -1.70399707820782
 1 -4.78899739523952 -0.29872302610261 -2.03333454615462
 1 -3.53600347964796  6.17896055185519  1.25492319631963
 1 -4.25810348784879  4.60101923412341  1.06692883068307
 1  0.30845541084108  6.37543950385039  1.89078181068107
 1 -1.19960134343434  7.28136483198320  1.66595585198520
 1 -0.03149396179618  7.30753925442544  0.32937927212721
 1 -3.67390768656866  6.55873175627563 -1.37265508160816
 1 -5.23131495459546  6.05179792079208 -0.64033917561756
 1 -4.53111763286329  4.72051354365436 -1.52552229062906
 1  3.47447275377538 -4.33662789298930  2.23258189518952
 1  7.76569381408141 -1.85082573487349  1.88022818541854

