%nproc=4
%Mem=4GB
# td=(NStates=1) B3LYP/SVP 

TD

0 1
 8 -4.41953207400740 -4.83516359755976  1.77992335593559
 8  2.97795839393939 -4.72265681488149  1.34688262006201
 8  6.91004138553855 -1.53654119521952  1.91764198469847
 8  3.84217595039504 -3.18259738493849  0.00789364776478
 8  7.52812156415642 -0.74557593689369 -0.12194176347635
 8 -2.98005833463346  2.43287068456846 -0.18091299589959
 7 -0.33165754745475 -0.58882823262326 -0.66541517771777
 7  1.57756543924392  1.78903128192819 -0.32284394649465
 7 -3.47131407440744 -3.09049809660966  0.56573504480448
 7 -0.73836523942394  2.91458187638764 -0.11492651655166
 6  0.65842707510751 -2.41278671697170 -1.34888697179718
 6  0.88738767256726 -1.09340929202920 -0.96529908520852
 6 -0.76277060216022 -2.64979886928693 -1.29799999939994
 6 -1.37982008820882 -1.49699334123412 -0.80315178107811
 6  3.79314725602560  1.47010149544954 -0.33787000340034
 6  2.47379807280728  0.82344367616762 -0.55155671427143
 6  2.12306931123112 -0.53702984878488 -0.80244248924893
 6  3.53756759365937  2.76350435863586 -0.05758653155316
 6  1.65361651415142 -3.40960622642264 -1.93590379137914
 6 -5.51318065326533 -2.56364827442744  1.38462840284028
 6 -3.61964402730273 -1.81586664866487  0.04642842784278
 6  2.13522778297830  2.98801522972297 -0.05975345234523
 6 -5.11488768506851 -1.48223372657266  0.39801844074407
 6  5.17697617571757  0.78452812281228 -0.36470952735273
 6 -2.66446740894089 -1.08258503010301 -0.45392580698070
 6 -1.39194713241324 -3.99763426572657 -1.71089433313331
 6 -4.47064453125313 -3.72275078077808  1.26899601420142
 6  2.04950542654265 -4.51007322702270 -0.87490034583458
 6  5.31597147344734 -0.15095115901590  0.80496860296030
 6  4.58197398359836  3.84841607290729  0.29426160996100
 6  1.30919216061606  4.10427483498350  0.16943706320632
 6 -6.89309043964396 -3.13371075087509  1.12595206130613
 6 -5.89516811931193 -0.46284101400140 -0.10250172457246
 6 -0.05179016801680  4.08326299789979  0.07136576217622
 6 -0.95040600230023  5.22892398539854  0.49699432803280
 6 -2.14468979517952  4.69571569436944  0.33432483538354
 6  2.99937277857786 -4.04797141624162  0.22916431543154
 6 -5.48647330813081  0.49289451805181 -1.03561462846285
 6  6.72596516271627 -0.86075435953595  0.84435755835584
 6 -3.58473423272327  5.27217351555155  0.45810662576258
 6 -2.06089952625263  3.25113730503050 -0.00832990819082
 6 -0.44674881238124  6.57821168916892  0.82783787358736
 6 -4.16149468636864  5.69271767666767 -0.83217399309931
 1 -0.45175274017402  0.14830053565357 -0.13821437473747
 1  2.98163217781778 -1.36059806190619 -0.86519602820282
 1  2.51304255515552 -3.04708941584158 -2.25210764546455
 1  1.23605038433843 -3.90871278887889 -2.76272863936394
 1 -5.63250505670567 -2.20501889098910  2.40498265876588
 1  5.09298960916092 -0.07739302280228 -1.18843199619962
 1  5.90187215281528  1.49784409370937 -0.55018631823182
 1 -2.77037513321332  0.02224672087209 -0.64681758735874
 1  0.59673600530053  1.81433261626163 -0.76742621472147
 1 -1.19800539173917 -4.85814791899190 -1.01924272997300
 1 -2.48077170687069 -3.96349405140514 -1.81421074127413
 1 -1.09050900200020 -4.25356353075308 -2.80517412041204
 1 -2.72108586638664 -3.77772392079208  0.29331657865787
 1  1.16321212791279 -4.85205768826883 -0.42072579007901
 1  2.59185837163716 -5.31158386688669 -1.37913242714271
 1  4.61447586858686 -1.03828988008801  0.71464205040504
 1  5.08131233083308  0.27179161576158  1.85920039073907
 1  4.94599211951195  4.72236270367037 -0.51382136483648
 1  5.53414003680368  3.23745646484648  0.57670419361936
 1  4.11207062446245  4.69479498759876  1.11426273017302
 1  1.65077090909091  5.12196212581258  0.13947373427343
 1 -7.61329410101010 -2.40245624012401  1.32108680268027
 1 -6.94594023832383 -4.05836360226023  1.85543791169117
 1 -7.07401558555856 -3.33353111661166 -0.05105351615161
 1 -6.90893823552355 -0.46081641294129  0.35428735663566
 1 -4.75282012381238  1.28795299219922 -0.54199804790479
 1 -6.34570640034003  0.94770239853985 -1.46861353985399
 1 -4.88366686218622 -0.06276943074307 -1.84111532423242
 1 -3.58293817311731  6.19322197799780  1.20205790979098
 1 -4.33620129762976  4.50458959115912  0.99388152595260
 1  0.32728729402940  6.38558051795180  1.56471920442044
 1 -1.12994437773777  7.39831652715271  1.20234949134913
 1  0.11682086968697  7.06342484298430  0.04221055525553
 1 -3.70283057885789  6.60433631673167 -1.39687750385038
 1 -5.22672449554956  5.82787552855286 -0.58159330103010
 1 -4.24705922702270  4.97130862316232 -1.69403914231423
 1  3.79034434093409 -4.42427665786579  1.86732536953695
 1  7.93470071477148 -1.90614126642664  2.02638280088009

