%nproc=4
%Mem=4GB
# td=(NStates=1) B3LYP/SVP 

TD

0 1
 8 -4.57438755955596 -4.77196727792779  1.78863422702270
 8  2.96816741484148 -4.82099664886489  1.25979391119112
 8  6.92638301970197 -1.44853239433943  1.89275949644964
 8  3.92162389518952 -3.16601572677268  0.01519437783778
 8  7.58332708470847 -0.78151953125313 -0.04483405270527
 8 -3.07878820762076  2.57877527502750 -0.21299620422042
 7 -0.26992137383738 -0.60231958175818 -0.55315395159516
 7  1.47728541124112  1.78288066686669 -0.40508217031703
 7 -3.42133907690769 -3.18770781758176  0.54301277257726
 7 -0.73309471237124  2.90360077827783 -0.06853187708771
 6  0.66579781218122 -2.41618705700570 -1.37673975707571
 6  1.05366430023002 -1.16222617371737 -0.92156471177118
 6 -0.77102142724272 -2.63529741914191 -1.26852705210521
 6 -1.30227233343334 -1.49740338223822 -0.73837530343034
 6  3.78427636893689  1.39109359465947 -0.34124034043404
 6  2.47829852285229  0.74203553535354 -0.48715027362736
 6  2.23081008530853 -0.57502364816482 -0.82568481348135
 6  3.50108394529453  2.80101811001100 -0.15816658955896
 6  1.64409556205621 -3.38003326912691 -1.85369557055706
 6 -5.51903123832383 -2.52364427402740  1.41350129012901
 6 -3.65110717361736 -1.85963102510251  0.08879266426643
 6  2.05322958315832  2.95794222242224 -0.04207168416842
 6 -5.02102829912991 -1.51174667786779  0.45656429532953
 6  5.07651612971297  0.67706737673767 -0.40042309870987
 6 -2.67067803000300 -1.10271704330433 -0.39201961636164
 6 -1.48542648034804 -3.86004050635063 -1.78851209490949
 6 -4.46437390419042 -3.65372387808781  1.33567268186819
 6  2.11462193819382 -4.57917013671367 -0.95025788158816
 6  5.30056993329333 -0.17834389828983  0.79271737783778
 6  4.44653043924392  3.84509574087409  0.22445462926293
 6  1.30636187758776  4.05537994549455  0.19228934843484
 6 -6.96641777237724 -3.02519989978998  1.21666113221322
 6 -5.78631723422342 -0.52401713161316 -0.16770824522452
 6 -0.04187917691769  4.04793946554655  0.29685831143114
 6 -0.90879184088409  5.27901899489949  0.50912554115412
 6 -2.19234456065607  4.79185530833083  0.38272967586759
 6  3.12704554585459 -4.11831845094509  0.12050344934493
 6 -5.33339800060006  0.34960018861886 -1.28129919691969
 6  6.74045661186119 -0.82497078117812  0.81256437903790
 6 -3.59027478677868  5.39817611581158  0.47441825692569
 6 -2.06740017631763  3.29150134143414 -0.01879095429543
 6 -0.52505664316432  6.59743361136114  0.87873296309631
 6 -4.24313285018502  5.61312971787179 -0.93057383308331
 1 -0.24435200010001  0.27981368696870 -0.01662221552155
 1  3.04444845944594 -1.29709171127113 -1.09112862146215
 1  2.48342959385939 -2.85652035893589 -2.07184961966197
 1  1.08950572987299 -3.74937685528553 -2.75236760326033
 1 -5.31501330753075 -2.18681707080708  2.37420958145815
 1  5.06362667286729  0.07164188068807 -1.38873202620262
 1  5.92112407800780  1.45617992729273 -0.48942024162416
 1 -3.03838193389339 -0.02230773457346 -0.47619052465247
 1  0.41210754245425  1.70924210721072 -0.27994746684668
 1 -1.50433602480248 -4.54354645884588 -1.11335214091409
 1 -2.47299092879288 -3.46406410841084 -1.91053037323732
 1 -1.09068902000200 -4.20045822022202 -2.71442504550455
 1 -2.45285904370437 -3.66066221462146  0.70640788778878
 1  1.32144795149515 -4.83310579307931 -0.26004972247225
 1  2.63976316211621 -5.28183089158916 -1.44447896179618
 1  4.65918033903390 -0.86638268936894  1.04559514571457
 1  5.25362956255626  0.53487792439244  1.67567203790379
 1  4.44504202450245  4.67152762016202 -0.60912089478948
 1  5.55823244604461  3.62950566976698  0.39210573377338
 1  4.20786020342034  4.31805731383138  1.25756706060606
 1  1.84158999099910  4.91428135773577  0.46228601550155
 1 -7.99648241984198 -2.30399639413941  1.38810350435044
 1 -7.11746739103910 -4.03559132503250  1.77959032693269
 1 -6.97077526152615 -3.31161892539254  0.14438602780278
 1 -6.81160850255025 -0.26524685598560  0.16331825972597
 1 -4.97653249504951  1.21590578747875 -0.87858170627063
 1 -6.18889071877188  0.58048567686769 -1.86393307180718
 1 -4.38535703120312 -0.05492864666467 -2.04327554025403
 1 -3.54961484078408  6.30656331213121  1.03036074007401
 1 -4.23816149364937  4.90481961416142  1.12598473627363
 1  0.16894145944594  6.62922488238824  1.70994372687269
 1 -1.36160754405441  7.25060175567557  1.28243750015002
 1  0.02945213281328  7.28088658915892 -0.06793045884588
 1 -3.50810110591059  6.41787767086709 -1.51070888698870
 1 -5.24514633773377  6.07160990199020 -0.89387452915291
 1 -4.39318383948395  4.68532002430243 -1.56820655905591
 1  3.76095140164016 -4.48739296949695  1.72692132913291
 1  7.73061030573057 -2.02427307960796  1.67780794339434

