%nproc=4
%Mem=4GB
# td=(NStates=1) B3LYP/SVP 

TD

0 1
 8 -4.50319043984398 -4.83344342554255  1.73666903050305
 8  2.82692329042904 -4.79482403160316  1.32710064186419
 8  7.12607298869887 -1.33484102520252  2.04635485598560
 8  3.78030976377638 -3.19484861006101  0.12518537693769
 8  7.56713546554655 -0.57104848414842 -0.07011658095810
 8 -2.93734406320632  2.42299969746975 -0.02555746034603
 7 -0.26770115181518 -0.55289463926393 -0.67351598779878
 7  1.47334501720172  1.75852823162316 -0.32688435053505
 7 -3.43156009900990 -3.17670671747175  0.56818528982898
 7 -0.71012241514151  2.87371778997900 -0.06113113701370
 6  0.60791202360236 -2.50055549384939 -1.37761984508451
 6  0.92426135993599 -1.14453440454045 -0.95720827612761
 6 -0.74172849794980 -2.64520841024102 -1.25835603500350
 6 -1.29466157235724 -1.42326596849685 -0.77064853075308
 6  3.84926286758676  1.44713919921992 -0.37080329672967
 6  2.45393608660866  0.82082341414141 -0.58700025862586
 6  2.16532353665367 -0.46688283408341 -0.87396964196420
 6  3.50982481938194  2.76447445564557 -0.04461523442344
 6  1.58355950845084 -3.50331559735974 -1.90483068406841
 6 -5.55634496969697 -2.61290319991999  1.35931587158716
 6 -3.70283234613461 -1.84443950595060  0.06955074007401
 6  2.08629288948895  3.03280970917092 -0.12712018901890
 6 -4.97453364966497 -1.49505500870087  0.35586422532253
 6  5.13318179627963  0.68243791379138 -0.44751780818082
 6 -2.68598956115612 -1.05027179877988 -0.44555496989699
 6 -1.48664660236024 -3.82971747404740 -1.81862510621062
 6 -4.49014648144815 -3.71312981868187  1.22527164176418
 6  2.01170164616462 -4.57741996169617 -0.90876373217322
 6  5.38749862616262 -0.22765882978298  0.90909901600160
 6  4.64531031723172  3.74981621292129  0.15978816261626
 6  1.32270351175118  4.20815522302230  0.06096621612161
 6 -6.96914804540454 -3.18515589538954  1.09877934403440
 6 -5.82701130363036 -0.55273000290029 -0.11226270067007
 6 -0.01277626662666  4.05426009760976  0.02888151375138
 6 -0.91126208790879  5.27125821882188  0.40318494709471
 6 -2.16449177537754  4.70650677347735  0.42470387328733
 6  2.90570341164116 -4.04269088818882  0.19984138313831
 6 -5.53691835263526  0.59360458905891 -1.10636170317032
 6  6.85257782398240 -0.77463574767477  0.84146726932693
 6 -3.54880063936394  5.31229752795280  0.58224904000400
 6 -2.04287772407241  3.19275146644664  0.06294721952195
 6 -0.40939507700770  6.61502537053705  0.70070516031603
 6 -4.22709124602460  5.50503890879088 -0.73268404410441
 1 -0.35744330923092  0.36328203380338 -0.03418397169717
 1  3.06262027662766 -1.10463246534654 -1.00674018261826
 1  2.48630988188819 -2.97481218811881 -2.30251268596860
 1  1.01968874817482 -3.90724264186419 -2.72095446194619
 1 -5.52125393159316 -2.01994038313831  2.25846800730073
 1  5.06142645284528  0.15814053055305 -1.41128428142814
 1  5.92719468506851  1.56666097539754 -0.33340464006401
 1 -2.91632972867287  0.18064256045605 -0.77458036363636
 1  0.47146347804780  1.63851503450345 -0.51225069716972
 1 -1.72689828102810 -4.63381548574857 -1.06972777847785
 1 -2.56577020672067 -3.60782848484848 -2.43312263246325
 1 -1.03945389648965 -4.26413458785879 -2.72387599059906
 1 -2.65482924072407 -3.72916906530653  0.42683993099310
 1  1.20899670637064 -5.08413089558956 -0.26273999149915
 1  2.46079526532653 -5.51104381288129 -1.30990550445045
 1  4.59573399439944 -0.89460551165117  0.90054064026403
 1  5.31468566816682  0.60971540814081  1.51902637333733
 1  4.93860138043804  4.48531899929993 -0.74900488318832
 1  5.65439206200620  3.25726844604460  0.42290881408141
 1  4.58332775017502  4.25307081518152  1.00758206210621
 1  1.84673050505050  5.08301823142314  0.51456124302430
 1 -7.79342211381138 -2.35640163466347  1.23253794779478
 1 -7.18232387668767 -4.03394116001600  1.69680204810481
 1 -7.13551173517352 -3.57970573407341  0.01288287748775
 1 -6.74079142084208 -0.57346767806781  0.50935286318632
 1 -4.97580242204220  1.37956215311531 -0.93060690879088
 1 -6.51881371107111  0.91363899219922 -1.47315399389939
 1 -4.89243773927393  0.06902374857486 -1.95078629132913
 1 -3.54602448174818  6.37051970777078  1.05155285928593
 1 -4.20822850035004  4.60096922912291  1.31091322912291
 1  0.17395196049605  6.67195915581558  1.68299103160316
 1 -1.26898828212821  7.34777147264726  1.08362761916192
 1 -0.00039085148515  7.08430693119312 -0.21557522332233
 1 -3.44427472327233  6.03049893299330 -1.34392220832083
 1 -5.05457728082808  6.28532127312731 -0.53704884658466
 1 -4.38966348744875  4.58111960426043 -1.26169590799080
 1  3.57051235773577 -4.69933416361636  1.91210984798480
 1  8.27723496819682 -1.50947159945995  2.13544370697070

