%nproc=4
%Mem=4GB
# td=(NStates=1) B3LYP/SVP 

TD

0 1
 8 -4.60713083388339 -4.81676175737574  1.72815817941794
 8  2.89164976307631 -4.64595914511451  1.43212114391439
 8  7.11694207560756 -1.51979952105211  1.69947016751675
 8  3.55487722052205 -2.92290141534153  0.21522438083808
 8  7.72828158015802 -0.44168554785479 -0.14486405570557
 8 -2.92366269506951  2.40599799729973 -0.23329823442344
 7 -0.35670005170517 -0.64653400320032 -0.55462409860986
 7  1.54940262296230  1.79971235003500 -0.35545720782078
 7 -3.40668761176118 -3.08958800560056  0.73232170347035
 7 -0.71314271717172  2.85459587778778  0.00176515261526
 6  0.55753698609861 -2.53818925722572 -1.39082116521652
 6  0.91528046184618 -1.14595454655466 -1.03017557285729
 6 -0.81720604570457 -2.69311320072007 -1.28069826922692
 6 -1.35990809700970 -1.54892853475348 -0.86253771967197
 6  3.77420536183618  1.39479396469647 -0.40121633803380
 6  2.49855054805481  0.77200853265327 -0.60210176877688
 6  2.18726573087309 -0.59418556435644 -0.94145639063906
 6  3.58525236213621  2.72117012521252 -0.09573034593459
 6  1.54997615011501 -3.50648591439144 -1.82632283328333
 6 -5.59039837503750 -2.53814572417242  1.36854679467947
 6 -3.64964702760276 -1.87038210021002  0.16072985798580
 6  2.16520078027803  2.93611003920392  0.02125464846485
 6 -5.03435963226323 -1.44414991819182  0.29917855675568
 6  5.09067754585458  0.67928759875988 -0.46264932133213
 6 -2.67374833703370 -1.13957072867287 -0.50886130053005
 6 -1.61251918961896 -3.87781228352835 -1.82979622332233
 6 -4.54145161196120 -3.56591509720972  1.35318443304330
 6  2.09520999699970 -4.51413363306331 -0.73223607940794
 6  5.55314519081908 -0.07558362226223  0.81830993709371
 6  4.59415520172017  3.76281751305131  0.34431661546155
 6  1.36522776417642  4.07233164066407  0.21004112361236
 6 -6.93532466306631 -3.23394077387739  1.03741320742074
 6 -5.81007961046105 -0.46224095399540 -0.25388686308631
 6 -0.03042803180318  4.04940961256126  0.27253587918792
 6 -1.00653161486149  5.16963805680568  0.56536116471647
 6 -2.22260758695870  4.66299242204220  0.44994639753975
 6  2.94333717501750 -3.97509412851285  0.29711111011101
 6 -5.45946060686069  0.51421665026503 -1.34299536653665
 6  6.92866543274327 -0.71427971207121  0.69786290889089
 6 -3.59104486378638  5.36413271147115  0.50508132323232
 6 -2.05777921422142  3.17354954625463  0.01149207400740
 6 -0.49607374487449  6.51160502850285  0.88982407220722
 6 -4.12871140804080  5.64382278717872 -0.80866164186419
 1 -0.60704826972697  0.15832153775378 -0.06104665796580
 1  2.90922493709371 -1.19890189228923 -1.25801531013101
 1  2.37517876877688 -2.91347605450545 -2.30037247194719
 1  1.22073885318532 -4.22628454605460 -2.55846821332133
 1 -5.55136694289429 -2.10801919101910  2.34333649414941
 1  5.38517882808281 -0.11542682618262 -1.27976112911291
 1  5.89612157775778  1.55826013531353 -0.68691999159916
 1 -2.76756485218522 -0.08973447724772 -0.53174608020802
 1  0.50393672537254  1.98870005300530 -0.66499597169717
 1 -1.57199279047905 -4.84262636683668 -1.21210201590159
 1 -2.61837546724672 -3.62424012601260 -2.02017133733373
 1 -0.84475442654266 -4.18297647204720 -2.55366896989699
 1 -2.53435719351935 -3.54399054745475  0.60569781678168
 1  1.14284009070907 -5.05001748424842 -0.27770148764876
 1  2.49077826362636 -5.20804351285128 -1.46562107600760
 1  4.84825924692469 -0.81964801590159  1.04335492169217
 1  5.55192939253925  0.52504694129413  1.88948341904190
 1  4.61452897319732  4.44996546394640 -0.58531851455146
 1  5.47654427722772  3.29901262046205  0.43170969416942
 1  4.24295371277128  4.20234574267427  1.35981728562856
 1  2.07656348834883  5.13803373297330  0.26052583948395
 1 -7.60442321392139 -2.46673266776678  0.84236893089309
 1 -7.05477112141214 -3.82961072697270  2.07232960086009
 1 -6.76565474947495 -3.87040480398040  0.24437602680268
 1 -6.93099044074407 -0.50588091939194 -0.00495856795680
 1 -4.72090693249325  1.15981017791779 -1.08412226032603
 1 -6.35458728842884  0.90723835213521 -1.46639331783178
 1 -4.90611910741074  0.01725857205721 -2.22709392209221
 1 -3.54534441374137  6.18132078787879  1.19795749974998
 1 -4.32340001750175  4.60921005320532  1.09732186998700
 1  0.38765333063306  6.35697765766577  1.60751348384838
 1 -1.21956333963396  7.15254194969497  1.34636389278928
 1  0.01602078967897  7.07877637813781  0.22373870807081
 1 -3.65430572637264  6.39436531963196 -1.36530434653465
 1 -5.18418024112411  5.87252999399940 -0.83042818451845
 1 -4.00758527962796  4.87030852315231 -1.52461219961996
 1  3.41257656415642 -4.35788001820182  2.08822745974597
 1  7.85722296699670 -1.88365901820182  1.61165132773277

