%nproc=4
%Mem=4GB
# td=(NStates=1) B3LYP/SVP 

TD

0 1
 8 -4.29230935173517 -4.71760184138414  1.90919628322832
 8  3.08420901900190 -5.00907545674567  1.27653558535854
 8  7.03606398779878 -1.50300784188419  1.90251047154715
 8  3.66087782058206 -3.11368049324932  0.13206606500650
 8  7.48697744974497 -0.87111849114911 -0.19112868216822
 8 -3.06573690249025  2.51253865136514 -0.36642154675468
 7 -0.26286066776678 -0.53448279807981 -0.57985662186219
 7  1.52576025872587  1.85691807060706 -0.37964962706271
 7 -3.41933887688769 -3.18682772957296  0.56330480178018
 7 -0.78246964986499  2.83129354755476 -0.11989701360136
 6  0.66073730613061 -2.40617605590559 -1.31755383848385
 6  0.94301323512351 -1.17874782588259 -0.84153670897090
 6 -0.78004232933293 -2.61513540294029 -1.38893909330933
 6 -1.29314142034203 -1.38394203610361 -0.81713317921792
 6  3.84266220752075  1.53802828812881 -0.31020723712371
 6  2.42041273427343  0.84158549034903 -0.51625318391839
 6  2.17716472077208 -0.44694083988399 -0.95274751975198
 6  3.61081491839184  2.81254926312631  0.09251847894789
 6  1.63990514301430 -3.44024929072907 -1.89772997399740
 6 -5.55382471767177 -2.60382229182918  1.41953189318932
 6 -3.71023308620862 -1.80384544654465  0.15076886188619
 6  2.11551581178118  3.07289371757176 -0.00655813281328
 6 -5.05234143044304 -1.42555805900590  0.53306194509451
 6  5.11844032213221  0.70254992499250 -0.37663071947195
 6 -2.66678764096410 -1.14983175477548 -0.44750516491649
 6 -1.45534347204720 -3.73706820912091 -1.95487873157316
 6 -4.40238770557056 -3.63840234593459  1.35423453805381
 6  2.04498497449745 -4.57601982168217 -0.89808266406641
 6  5.32982285858586 -0.23312937683768  0.82148025412541
 6  4.59941572777278  3.88572980428043  0.32519470327033
 6  1.31703294469447  4.10906531403140  0.28196831633163
 6 -6.94178530913091 -3.08873625342534  1.09501896799680
 6 -5.80954955745575 -0.47001173107311 -0.11531300570057
 6 -0.12118710771077  3.98795346694669  0.25011363696370
 6 -1.00162112381238  5.18376946994699  0.43255788438844
 6 -2.22737806400640  4.69219534233423  0.22739414231423
 6  2.94849769106911 -4.08714533363336  0.23846524552455
 6 -5.39435409620962  0.50818604720472 -1.09004007100710
 6  6.77250981718172 -0.79122740684068  0.78293141574157
 6 -3.54567032633263  5.20651694989499  0.33810462556256
 6 -2.13650708700870  3.16601879317932 -0.05992506770677
 6 -0.57860199769977  6.47642151015102  0.90195528532853
 6 -4.14119265616562  5.65314371927193 -0.95727650335034
 1 -0.53429099399940  0.36233193879388 -0.14785533883388
 1  2.90611462606261 -1.26313831593159 -1.14459396799680
 1  2.51913316421642 -2.94809951685169 -2.17408984368437
 1  1.42384916421642 -3.94573649124912 -2.78342070857086
 1 -5.29235104130413 -2.04965335443544  2.51078323882388
 1  5.11964227442744  0.08020273677368 -1.23236638963896
 1  5.96796876247625  1.46132044134413 -0.65570687028703
 1 -2.96629472517252 -0.24805030883088 -0.66576948254825
 1  0.48805513721372  1.90537172017202 -0.33970344244424
 1 -1.60840643184319 -4.66512861706171 -1.09966077177718
 1 -2.46619024872487 -3.45211291329133 -2.32241156135613
 1 -0.95001495259526 -3.99579775417542 -2.99108271127113
 1 -2.49359311711171 -3.55606175457546  0.49519676667667
 1  1.13645945264526 -5.04577706020602 -0.50765448294829
 1  2.56059524532453 -5.43139584808481 -1.37547206110611
 1  4.55973039403940 -1.15319137023702  0.95738632483248
 1  5.41921612121212  0.18803323992399  1.73411788248825
 1  4.46082360266027  4.87601806920692 -0.33989397209721
 1  5.68126474927493  3.67854057325733  0.18227475067507
 1  4.59009842724272  4.20608611671167  1.33752505640564
 1  1.69610544254425  5.19354928452845  0.62098188508851
 1 -7.57529030063006 -2.26638263276328  1.25049974397440
 1 -7.29115475977598 -3.87671543744374  2.02561492939294
 1 -7.11769995399540 -3.52031979547955  0.22912450165017
 1 -6.73350069176918 -0.22962329362936  0.43930585848585
 1 -5.03103794559456  1.41240543744374 -0.59091293939394
 1 -6.30914274397440  0.68803643194319 -1.77306398489849
 1 -4.58400689618962  0.27250409660966 -1.90591180388039
 1 -3.70450032933293  6.09976263206321  1.01544924892489
 1 -4.38623630113011  4.33289242144214  0.59629176697670
 1 -0.14472990769077  6.55450741064106  1.92825555805581
 1 -1.48042942624262  7.14642133763376  0.96143539993999
 1  0.33560274787479  6.96948544904490  0.35561189538954
 1 -3.48448874467447  6.58039392249225 -1.46380419651965
 1 -5.04330615371537  6.03690643164316 -0.59922506420642
 1 -4.21369589068907  4.65532702500250 -1.62414215261526
 1  3.60418572507251 -4.47646187638764  1.91459009600960
 1  7.89033627832783 -1.91093174547455  1.91449161176118

