%nproc=4
%Mem=4GB
# td=(NStates=1) B3LYP/SVP 

TD

0 1
 8 -4.39852997379738 -4.60894097529753  1.99649501310131
 8  2.81812241034103 -4.93475802500250  1.41341927372737
 8  7.12284266566657 -1.63764130523052  1.65411563206321
 8  3.68530026282628 -3.12893201840184  0.29001185958596
 8  7.59802855485549 -0.45650703000300 -0.27132670197020
 8 -2.99276960576058  2.53905130263026 -0.30227513211321
 7 -0.25373975567557 -0.64416376617662 -0.60872950915092
 7  1.55609329202920  1.80397277607761 -0.39147080918092
 7 -3.32692963596360 -3.11284033083308  0.60160863216322
 7 -0.71026242914291  2.99134955315532 -0.14048907280728
 6  0.69005023742374 -2.49050448874887 -1.29677176027603
 6  0.95471440524052 -1.17306725782578 -0.89301185648565
 6 -0.78110243534353 -2.71217510691069 -1.23805400480048
 6 -1.24336644284428 -1.45453909580958 -0.80418188408841
 6  3.77129507080708  1.41372585788579 -0.26430264666467
 6  2.44959565256526  0.86253758555856 -0.65360691929193
 6  2.18899590389039 -0.51899804560456 -0.77732997799780
 6  3.47968180508051  2.72370037823782  0.03538276537654
 6  1.69526067856786 -3.45800106590659 -1.85320552155216
 6 -5.58312764796480 -2.58536044564456  1.26931687168717
 6 -3.60722278517852 -1.82574763676368  0.03105689068907
 6  2.12038629882988  2.98111453965397  0.06691921492149
 6 -5.00968716501650 -1.53548905210521  0.37502614151415
 6  5.04968344644464  0.73758342834283 -0.38774183058306
 6 -2.73836479867987 -1.01061783338334 -0.52091250565056
 6 -1.46061399909991 -3.90269477177718 -1.74273751745174
 6 -4.43430089688969 -3.59225773147315  1.36303541814181
 6  2.00486096209621 -4.54532675237524 -0.86414927072707
 6  5.47299717601760 -0.24227029092909  0.74128223432343
 6  4.50852663886389  3.77622885418542  0.41692387618762
 6  1.36693793519352  4.09224363186319  0.30428054755476
 6 -7.01880301090109 -3.24002138193819  0.93459292539254
 6 -5.81765036753675 -0.59004373427343 -0.13804527892789
 6 -0.03351834083408  4.07438210981098  0.26176480208021
 6 -1.00661162286229  5.18941003400340  0.47634226282628
 6 -2.28413373957396  4.78586470927093  0.31586298919892
 6  2.91487432873287 -4.13826044514451  0.28773017201720
 6 -5.42008666946695  0.36978220682068 -1.20974204120412
 6  6.81826439263926 -0.77555583968397  0.56570969356936
 6 -3.66440219951995  5.40576687488749  0.48963977907791
 6 -2.09420285658566  3.32085427672767 -0.13000207540754
 6 -0.43978811631163  6.55458932693269  0.92727781758176
 6 -4.21963049994999  5.70882928782878 -0.86480725642564
 1 -0.43238080298030  0.23530923652365 -0.32474302760276
 1  3.08722273687369 -1.26332833493349 -0.85752526112611
 1  2.57453870477048 -2.79012371927193 -1.84004643934393
 1  1.24377115641564 -3.83370528812881 -2.87738010451045
 1 -5.37939974617462 -2.07963635273527  2.20303246374637
 1  4.98586889708971  0.06600131663166 -1.23058621162116
 1  5.83390535613561  1.24875918521852 -0.53249454905491
 1 -2.94521261696170 -0.03274877867787 -0.56762966856686
 1  0.45600193189319  1.70749193219322 -0.52253172527253
 1 -1.46735232643264 -4.62084418861886 -1.15292609830983
 1 -2.57509113881388 -3.73852155415541 -2.03917323752375
 1 -0.94961491259126 -4.45596377077708 -2.82062566556656
 1 -2.40932469026903 -3.60352650105010  0.66863411041104
 1  1.10978678537854 -5.16327881038104 -0.48310202770277
 1  2.73447263306331 -5.09247195569557 -1.37131164506451
 1  4.66113053405341 -1.05968201930193  0.93361394759476
 1  5.37490168976898  0.35601003760376  1.70894536523652
 1  4.36258377867787  4.46092656005601 -0.45201518421842
 1  5.65451207400740  3.35794851405141  0.50534705790579
 1  4.10674009140914  4.52185769386939  1.32734403830383
 1  1.77802363436344  5.04473440304030  0.77727751465146
 1 -8.00290306190619 -2.50217621212121  1.01625631963196
 1 -7.17839348364836 -4.01697946384638  1.80022239013901
 1 -7.16927511151115 -3.78982674617462 -0.07244565536554
 1 -6.99698704040404 -0.63955428672867 -0.00840891299130
 1 -4.86544138593859  1.34206840374037 -0.92896674477448
 1 -6.31759358905891  0.74810243854385 -1.71128780728073
 1 -4.84035253075308 -0.11338449224922 -2.01722293499350
 1 -3.60211009030903  6.26340899669967  1.03940164416442
 1 -4.39275695319532  4.68804793699370  0.94866700450045
 1  0.23333789908991  6.38635059495950  1.97512024452445
 1 -1.34240562386239  7.18263495899590  1.11899115551555
 1  0.50606979457946  7.08245674617462  0.34303063726373
 1 -3.50010030583058  6.38105398849885 -1.34144196029603
 1 -5.24102592569257  6.20105284628463 -0.76326146784678
 1 -4.42953747484748  4.86278777107711 -1.46537627602760
 1  3.55400070657066 -4.55629986018602  1.74357299429943
 1  8.09607685238524 -1.95268592089209  1.49081924452445

