%nproc=4
%Mem=4GB
# td=(NStates=1) B3LYP/SVP 

TD

0 1
 8 -4.49180930173017 -4.68938902010201  1.99107447104710
 8  2.99233983208321 -4.74917946714671  1.04288222002200
 8  6.93292367376738 -1.62969051015102  1.87729795029503
 8  3.67150888368837 -3.04907403260326 -0.11272841444144
 8  7.56343509550955 -0.54813619291929  0.03204363506351
 8 -2.99693002180218  2.43965136263626 -0.29353425802580
 7 -0.19514389608961 -0.55606495629563 -0.62328096429643
 7  1.52412009470947  1.78183056185619 -0.28208987108711
 7 -3.43081002400240 -2.94790383718372  0.89633810511051
 7 -0.78484988788879  2.91759217741774 -0.03611863576358
 6  0.72140337273727 -2.49525496379638 -1.43827591069107
 6  0.99115804960496 -1.16727667876788 -0.99688224352435
 6 -0.76347067216722 -2.69179306870687 -1.41108130753075
 6 -1.30901300750075 -1.44933857575758 -0.80976244214421
 6  3.76071401270127  1.40865535083508 -0.26626284268427
 6  2.47108780178018  0.82697402920292 -0.62118367696770
 6  2.26627363166317 -0.55064120992099 -0.93753599859986
 6  3.58412224912491  2.74341234943494  0.02132135923592
 6  1.67103825632563 -3.50450571637164 -1.99475967696770
 6 -5.57449678487849 -2.53870578017802  1.50085002500250
 6 -3.61994405730573 -1.82124718671867  0.22613639863986
 6  2.10494475467547  2.98700512871287  0.01043356635664
 6 -5.07547374367437 -1.46548205140514  0.40570920982098
 6  5.10250872897290  0.74711438143814 -0.33674673107311
 6 -2.60036099829983 -1.11314808640864 -0.45617603200320
 6 -1.52721065876588 -3.87694219651965 -1.71173441714171
 6 -4.52694016081608 -3.58391689738974  1.52659177377738
 6  1.98963943994399 -4.55174739443944 -1.08095095089509
 6  5.40611048734873 -0.16686275017502  0.94262236833683
 6  4.52494828102810  3.72938416971697  0.36992917671767
 6  1.36715795719572  4.16460086758676  0.33867398689869
 6 -6.99417054765477 -3.08784616441644  1.16877634373437
 6 -5.69793839633963 -0.54335906580658 -0.16314778917892
 6 -0.14868985798580  4.02609728132813  0.35134375997600
 6 -0.99705066676668  5.17292838583858  0.43274790339034
 6 -2.26415174137414  4.65686180898090  0.20144154705471
 6  3.06143898519852 -4.06588320742074 -0.03504210521052
 6 -5.37992265306531  0.32172740134013 -1.29614068106811
 6  6.68764133033303 -0.76139442354235  0.86102922552255
 6 -3.59332509180918  5.36809310751075  0.30418123322332
 6 -2.07947138343834  3.19673186448645 -0.06828590379038
 6 -0.45562970047005  6.50627449544954  0.98617370717072
 6 -4.18546708360836  5.58891729662966 -1.08184896059606
 1 -0.41542910781078  0.46035174077408 -0.28014856815682
 1  3.07206122072207 -0.91232323442344 -1.43701320992099
 1  2.62774402530253 -2.89882458935894 -2.30037247194719
 1  1.26855363466347 -3.85731764936494 -2.96781914841484
 1 -5.59986179237924 -2.18845723482348  2.69311147164716
 1  5.37598790899090  0.23856857335734 -1.25125827882788
 1  5.90634259985999  1.44205851515152 -0.19944124372437
 1 -2.87364546024602  0.02785728192819 -0.74873777937794
 1  0.54131046274627  1.61676285928593 -0.93199267136714
 1 -1.66988257945795 -4.66704880908091 -0.82154295999600
 1 -2.52133576327633 -3.75211291329133 -1.98285760596060
 1 -0.90494044514451 -4.48402657705771 -2.43839744274427
 1 -2.59071282908291 -3.51014716311631  0.97921516851685
 1  1.16060186688669 -4.75346782928293 -0.51497521502150
 1  2.57695688148815 -5.48611131963196 -1.52352686658666
 1  4.76053047404740 -1.24188023912391  0.89770035623562
 1  5.28920311991199  0.50074451105111  1.80885535623562
 1  4.33962148244825  4.63148361576158 -0.24083406610661
 1  5.62468909170917  3.54383710291029  0.10017654085409
 1  4.64124354175418  4.06980248834884  1.53480478437844
 1  1.66328216021602  5.17449737933793  0.61941172807281
 1 -7.82167493909391 -2.37468346284628  1.43502819681968
 1 -7.24270991529153 -3.73459122502250  1.93854622252225
 1 -7.22911109510951 -3.45239300280028  0.15198678787879
 1 -6.82889023072307 -0.52378270957096  0.18714064196420
 1 -4.89363420522052  1.29592378927893 -0.81382523062306
 1 -6.00452228192819  0.54322195049505 -2.14698137663766
 1 -4.58164666016602 -0.08546169997000 -1.96004721742174
 1 -3.67072695199520  6.26571922772277  1.14464216821682
 1 -4.15913359085909  4.30725985818582  0.93863600140014
 1  0.28875344064406  6.44622658255826  1.87523025552555
 1 -1.17367875117512  7.26341303680368  1.25780503690369
 1  0.08954814241424  7.19320782128213  0.30927726192619
 1 -3.64669496529653  6.50633651675168 -1.69386720282028
 1 -5.36358818191819  5.66981972297230 -1.04927006870687
 1 -3.95020954205420  4.61232272457246 -1.68981872027203
 1  3.57765307180718 -4.49470370057006  1.72772140914091
 1  7.89599684438444 -2.09909056135614  1.84925508810881

