%nproc=4
%Mem=4GB
# td=(NStates=1) B3LYP/SVP 

TD

0 1
 8 -4.60072019281928 -4.65961604280428  1.94328969256926
 8  2.99819041714171 -4.56186073527353  1.44077200900090
 8  7.09152953435344 -1.41068860996100  1.79549977047705
 8  3.68653038583858 -2.99684881008101  0.11729458785879
 8  7.67781653365337 -0.56841822112211 -0.12914248354835
 8 -3.00304063286329  2.46460385788579 -0.26941184578458
 7 -0.30200458215822 -0.56609595939594 -0.69877851405141
 7  1.55180286298630  1.70930330913091 -0.26618828092809
 7 -3.47173411641164 -3.22710175697570  0.68154662596260
 7 -0.75299670257026  2.92312273047305 -0.07750277417742
 6  0.56419765216522 -2.47639307760776 -1.27638972207221
 6  0.91912084588459 -1.24062401350135 -0.87879043434343
 6 -0.80442476757676 -2.64048793819382 -1.34346454585459
 6 -1.28109021522152 -1.50767440934093 -0.92368383428343
 6  3.82733067436744  1.35317980328033 -0.46961317771777
 6  2.47174786778678  0.75236656845685 -0.68574013261326
 6  2.18945594989499 -0.49445559135914 -0.89218146314631
 6  3.58745258215822  2.67427543574357 -0.07402817571757
 6  1.52704385688569 -3.48728399419942 -1.84073427442744
 6 -5.65222455765577 -2.52881479107911  1.20434037403740
 6 -3.59136119901990 -1.83700876287629  0.05353913891389
 6  2.17140140034003  2.93429985818582 -0.00102757975798
 6 -5.05591178747875 -1.50020552375238  0.37631627052705
 6  5.11578005610561  0.64333400340034 -0.53602665906591
 6 -2.66586754895490 -1.16141291289129 -0.53675408980898
 6 -1.59974791249125 -3.87928243054305 -1.72531577527753
 6 -4.60055752255226 -3.58598710441044  1.30008912351235
 6  2.19372984898490 -4.52185440514051 -0.73638649444944
 6  5.49363924022402 -0.18831489538954  0.70914902100210
 6  4.66607239343934  3.65732696399640  0.21428361216122
 6  1.36800804220422  4.09319372687269  0.28986910641064
 6 -7.04714584518452 -3.20626800660066  0.93897336343634
 6 -5.89680828332833 -0.51855658555856 -0.18274974937494
 6 -0.03272826182618  3.99623429502950  0.30458908450845
 6 -0.92857381908191  5.24011510451045  0.61784641324132
 6 -2.15328065426543  4.72741886468647  0.36144754765477
 6  3.10737357865787 -3.90932755185519  0.32618401740174
 6 -5.40567522832283  0.40726595519552 -1.34105517251725
 6  6.81385395159516 -0.75160344444444  0.71157428002800
 6 -3.61094685398540  5.32328862706271  0.57754856995700
 6 -2.12528596489649  3.24808700000000  0.01783270807081
 6 -0.53247738523852  6.51723559155916  0.93679876967697
 6 -4.19127766466647  5.64087249214922 -0.73711448714871
 1 -0.49410697559756  0.41294700030003 -0.19505005830583
 1  2.97291130573057 -1.20473247534753 -1.03266277487749
 1  2.44665591649165 -3.04812951985199 -2.32104453915392
 1  0.95244202350235 -4.07774969256926 -2.65798816531653
 1 -5.60301210741074 -2.19224761386139  2.39769192969297
 1  5.06854716491649 -0.07347263076308 -1.35527868086809
 1  6.11682364796480  1.33599790909091 -0.60299159875988
 1 -2.99096719241924 -0.11704720852085 -0.59231213681368
 1  0.43427975967597  1.85885706870687 -0.29282875497550
 1 -1.25728131933193 -4.70056216041604 -1.18865967166717
 1 -2.65709933963396 -3.72118982098210 -1.89467878807881
 1 -1.10044999609961 -4.19135731013101 -2.88096169916992
 1 -2.72309606740674 -3.95127127552755  0.87790503750375
 1  1.36811261796180 -5.00693317581758 -0.16378009550955
 1  2.72129131493149 -5.29081178967897 -1.24591910581058
 1  4.70363478447845 -0.91431748284828  0.80119070527053
 1  5.29128332793279  0.23975841244124  1.62838730943094
 1  4.36470399069907  4.56362683008301 -0.33299328202820
 1  5.62690931373137  3.24052677187719 -0.05880935773577
 1  4.39565898329833  4.06175168326833  1.15283658755876
 1  1.80873670567057  4.97328725832583  0.62174196109611
 1 -7.75227799939994 -2.51069706420642  1.39501419541954
 1 -6.93591923622362 -4.23495126102610  1.50112248014802
 1 -7.12145032903290 -3.44477224072407 -0.28236664746475
 1 -6.92213955565557 -0.62411274257426  0.14752668056806
 1 -4.76482132393239  1.11472566946695 -0.94173802190219
 1 -6.37484931463146  0.81949957825783 -1.70694737323732
 1 -4.87215571107111 -0.32887604140414 -2.10159137183718
 1 -3.49800968026803  6.09978263406341  1.31948965296530
 1 -4.26372404990499  4.63236236843684  1.05259739753975
 1 -0.17576301100110  6.74569652955296  2.06341907440744
 1 -1.27146853015302  7.26245294079408  0.89162841924192
 1  0.40242943054305  7.06530503100310  0.29749608380838
 1 -3.54764506030603  6.43160904400440 -1.21646946304630
 1 -5.18093991709171  6.13379612061206 -0.72663780548055
 1 -4.34858938003800  5.00342183448345 -1.46328606700670
 1  3.63153846034604 -4.21476570677068  2.04359299629963
 1  8.10729797449745 -1.66962761506151  2.01264142674267

