%nproc=4
%Mem=4GB
# td=(NStates=1) B3LYP/SVP 

TD

0 1
 8 -4.40381050185019 -4.66686676787679  1.96810217381738
 8  2.90887148524852 -4.74865941514151  1.27310524232423
 8  7.03512389378938 -1.33096063716372  2.04045426592659
 8  3.70279201200120 -3.08023714891489  0.09985284368437
 8  7.66068482048205 -0.46874825412541 -0.02697226652665
 8 -2.93957428622862  2.42842023952395 -0.26404130873087
 7 -0.27887226892689 -0.55300465026503 -0.75362399859986
 7  1.52836051875188  1.85993837263726 -0.39939160126013
 7 -3.49374631763176 -3.14466351315132  0.59706817811781
 7 -0.67173857675768  2.88392881108111 -0.06390141404140
 6  0.56243747614761 -2.50223566186619 -1.44237632073207
 6  0.97607654145415 -1.14790474157416 -1.10869342464246
 6 -0.83537786288629 -2.67695158455846 -1.22201240064006
 6 -1.34885699189919 -1.46833047494749 -0.90742220812081
 6  3.78478641994199  1.42218670397040 -0.39824604100410
 6  2.45961665466547  0.79436076787679 -0.60877243584358
 6  2.22271927622762 -0.56354250005000 -0.94237648264826
 6  3.63448728562856  2.69611761996200  0.01307053415342
 6  1.57077823032303 -3.61148641444144 -1.89447964896490
 6 -5.59304864006401 -2.54343625322532  1.34754469446945
 6 -3.66678874177418 -1.79988505050505  0.11749553455346
 6  2.11259551975198  2.95057148534853  0.01319384238424
 6 -5.07075327162716 -1.43644914811481  0.35780441934193
 6  5.08932741084108  0.61653132313231 -0.47256031243124
 6 -2.71879284148415 -1.11877864946495 -0.51448186258626
 6 -1.56252419011901 -3.87959246154615 -1.70096334003400
 6 -4.50971843864386 -3.61475998169817  1.38500761536154
 6  2.06147662366237 -4.53328554825483 -0.89366222202220
 6  5.43099297559756 -0.14217028092809  0.70763886998700
 6  4.63079886608661  3.77623885518552  0.23197538133813
 6  1.35790703210321  4.08807321482148  0.30136025552555
 6 -6.91804293489349 -3.25755313511351  1.16705617171717
 6 -5.89825842834283 -0.52285701560156 -0.19928140254025
 6 -0.02121711071107  3.95723039463946  0.39825845144514
 6 -0.89177013871387  5.10547164016402  0.66120074867487
 6 -2.23722904910491  4.61119724252425  0.45249665256526
 6  2.91611445274527 -4.04632125122512  0.16819821882188
 6 -5.48082274307431  0.53620884948495 -1.21606267326733
 6  6.79138170437044 -0.72048033213321  0.83758688128813
 6 -3.45528128742874  5.39563586178618  0.35973678877888
 6 -2.03727716401640  3.27325951725172 -0.00486956215622
 6 -0.55486962446245  6.47270113811381  0.99948503830383
 6 -4.18898743564356  5.64341274617462 -0.94506528222822
 1 -0.32819038393839  0.32777848344834 -0.62718327162716
 1  3.08330234483448 -1.20284228632863 -1.18633814241424
 1  2.30714196509651 -3.15976068296830 -2.59598203290329
 1  0.90139691899190 -4.18520043764376 -2.80842320882088
 1 -5.65589739593959 -2.05859424852485  2.33014517501750
 1  5.17345765596560 -0.11745702920292 -1.36969012201220
 1  5.96407837343734  1.39129343864386 -0.71126242584258
 1 -2.94404249994999 -0.09210471427143 -0.75877878347835
 1  0.50736706840684  1.88374955795580 -0.40934040614061
 1 -1.52684827602760 -4.74842694689469 -1.07645845154515
 1 -2.82684631433143 -3.76314401640164 -1.97444676487649
 1 -0.98459841094109 -4.16764493889389 -2.73888749174917
 1 -2.63199695749575 -3.84766091449145  0.49475672267227
 1  1.25155096179618 -5.21838432093209 -0.33789750725072
 1  2.72088127392739 -5.29329203770377 -1.53521803570357
 1  4.90053447444744 -1.17992404350435  0.78249883608361
 1  5.19377357695770  0.27616205280528  1.60921539223922
 1  4.77760528082808  4.56832730013001 -0.71661164386439
 1  5.67950457325733  3.24766748594860  0.61644816801680
 1  4.35717513491349  4.60743625172517  1.10404170807081
 1  1.84240007200720  4.99297922752275  0.43460324722472
 1 -7.87907067866787 -2.63665966046605  1.27747244124412
 1 -6.97062270657066 -4.33337110301030  1.78795116301630
 1 -7.00311849584959 -3.47626539003900  0.10760234943494
 1 -6.82719006070607 -0.32320265156516  0.55992792069207
 1 -5.05490033183318  1.47127132403240 -0.75447929602960
 1 -6.43222505220522  0.82764039233923 -1.80624730323032
 1 -4.68910740624062 -0.05521867566757 -1.86096730943094
 1 -3.39258913821382  6.18058071387139  0.92657036103610
 1 -4.29498717621762  4.85513464566457  0.94972711051105
 1  0.05407997329733  6.42745470537054  1.87495022752275
 1 -1.40217160046005  7.01833852935294  1.20014927132713
 1  0.11453064066407  6.92105060556056  0.29367570177018
 1 -3.71148144394440  6.25386126922692 -1.69783759985999
 1 -5.23780560366037  6.01130387138714 -0.97262240394039
 1 -4.09528404950495  4.55796728902890 -1.42483222162216
 1  3.57676298279828 -4.38496272647265  1.89147778477848
 1  7.93074031873187 -1.50480113241324  1.78649881248125

