%nproc=4
%Mem=4GB
# td=(NStates=1) B3LYP/SVP 

TD

0 1
 8 -4.48764888568857 -4.79531961316132  1.87954331793179
 8  3.08883948204821 -4.92684723392339  1.25141307310731
 8  7.09880026142614 -1.36301384248425  1.93673389388939
 8  3.74232596539654 -3.09376850205021  0.11843470187019
 8  7.59232798479848 -0.67956933623362 -0.12117168646865
 8 -2.95623595239524  2.38218561606161 -0.35140004460446
 7 -0.36534091579158 -0.55386473627363 -0.66445508170817
 7  1.55721340404040  1.80330270907091 -0.42784444654465
 7 -3.41634857785779 -3.05225427222722  0.69405787708771
 7 -0.77375877877788  2.93653407160716 -0.15666068996900
 6  0.67054828722872 -2.45940137843784 -1.33219530263026
 6  0.91749068286829 -1.16846679777978 -0.96603915921592
 6 -0.78347267236724 -2.59407329672967 -1.16157635703570
 6 -1.39160126632663 -1.44717835973597 -0.65104657055706
 6  3.80661860316032  1.41738622392239 -0.41069728612861
 6  2.45470616361636  0.85108644044404 -0.62590414901490
 6  2.10926793109311 -0.47359350515052 -0.88261050605060
 6  3.69785362226223  2.69583759195920 -0.02207298019802
 6  1.62974412691269 -3.43282854865487 -1.89356955795580
 6 -5.60082941814181 -2.61303321292129  1.32617255725573
 6 -3.66433849674968 -1.89163422542254  0.12932671767177
 6  2.24453871407141  3.01598802700270 -0.05916339333933
 6 -5.08644484078408 -1.59047455065507  0.31594023292329
 6  5.03988246634663  0.65163483348335 -0.45561861826183
 6 -2.78175913811381 -1.07887465906591 -0.47041745614561
 6 -1.59274721242124 -3.79235373767377 -1.75170841454145
 6 -4.55648311511151 -3.69557806350635  1.35075419001900
 6  2.03192366836684 -4.52287450715072 -0.87248010381038
 6  5.41009088538854 -0.15044110801080  0.80572867896790
 6  4.62797858405841  3.75430666196620  0.35511769556956
 6  1.39127036843684  4.09519392689269  0.29472959245925
 6 -7.07020815141514 -3.18211559135914  1.13902336843684
 6 -5.91439004150415 -0.65577030693069 -0.16105758015802
 6 -0.04472946194619  4.00951562316232  0.08685731133113
 6 -0.91679264096410  5.19425051805181  0.57105173377338
 6 -2.26445177137714  4.67671379417942  0.39286068896890
 6  3.00164300560056 -4.02958957805781  0.19870126912691
 6 -5.38665332613261  0.34420964956496 -1.25390645764576
 6  6.80861342754275 -0.73480176427643  0.77464058665867
 6 -3.48697445674567  5.43185948414841  0.46957777287729
 6 -2.09491292759276  3.23056524782478 -0.08364743994399
 6 -0.51413555105511  6.57126099409941  0.92031712151215
 6 -4.12944148104810  5.85790419531953 -0.83089386508651
 1 -0.61454901980198  0.31016672227223 -0.33819437273727
 1  3.02400641524152 -1.09871187328733 -0.86363587218722
 1  2.56723797469747 -2.85200990789079 -2.22044447914791
 1  1.32118889818982 -3.86368828642864 -2.81161352785279
 1 -5.39841164736474 -1.96631502060206  2.30721288178818
 1  4.98401871207121  0.06470118661866 -1.40636378937894
 1  5.90825279087909  1.33769807910791 -0.73073437303730
 1 -2.94883297899790 -0.10916642044204 -0.66600950655065
 1  0.40306663836384  1.90047123012301 -0.34429390149015
 1 -1.47119271047105 -4.68956106030603 -1.32377318301830
 1 -2.79028265796580 -3.65007270927093 -2.01168048824882
 1 -1.15888583968397 -4.03352152655266 -2.82458606160616
 1 -2.51718547634763 -3.49374552295229  0.61149839683968
 1  1.22772857955796 -5.15789827232723 -0.13515723322332
 1  2.68205739153915 -5.40824353285328 -1.28842335623562
 1  4.62437685868587 -1.02942899399940  0.79002958915892
 1  5.26783098269827  0.55034947154715  1.73018748944894
 1  4.24365188548855  4.76500696809681 -0.15316529922992
 1  5.72258888168817  3.61243396259626  0.20343686688669
 1  4.56484590199020  4.10900640874087  1.49630093399340
 1  1.85094092609261  5.09718964856486  0.71654144104410
 1 -7.84003677527753 -2.57253324782478  1.21603629762976
 1 -7.08913455775578 -4.16454422032203  1.58974134203420
 1 -7.11236942094209 -3.73097086058606  0.11339292849285
 1 -7.02925026672667 -0.64124445574557 -0.05189326142614
 1 -4.52774761656166  1.00468466536654 -0.75771962006201
 1 -6.11218304800480  1.09872750105011 -1.67761443994399
 1 -4.77734623012301 -0.14914806860686 -1.92673388608861
 1 -3.69941982128213  6.27509016481648  1.18255595959596
 1 -4.34319199669967  4.60204933713371  0.73868600640064
 1  0.18401296659666  6.35950791069107  1.78484121662166
 1 -1.24249563286329  7.25312200770077  1.00150940734073
 1  0.15546473407341  7.03630213071307  0.20031636583658
 1 -3.53183347914791  6.46494237733773 -1.42799061516152
 1 -5.10653247634763  6.29739248024802 -0.61752689438944
 1 -4.15380990209021  4.88889038133813 -1.43242298069807
 1  3.89218452495250 -4.73314754495450  1.93100173717372
 1  7.85918316301630 -1.84843549584959  1.94053421602160

