%nproc=4
%Mem=4GB
# td=(NStates=1) B3LYP/SVP 

TD

0 1
 8 -4.59071919271927 -4.64002408360836  1.92870823442344
 8  2.84698529662966 -4.61384593379338  1.40190812261226
 8  7.10418079947995 -1.76297383848385  1.60258047854785
 8  3.76851858465847 -3.13307243244324  0.13308616701670
 8  7.59531828382838 -0.53818519781978 -0.14138370767077
 8 -3.08987931673167  2.36906430393039 -0.12321722632263
 7 -0.28115249694969 -0.58470782058206 -0.60723936013601
 7  1.48445612831283  1.78275065386539 -0.32894455655566
 7 -3.54663160616062 -3.19231827862786  0.62401087238724
 7 -0.78354975787579  2.89802022022202 -0.02632765666567
 6  0.75570680308031 -2.38847428572857 -1.40321240434043
 6  0.94562349614962 -1.09045899699970 -0.89367192249225
 6 -0.64136846194619 -2.64289817921792 -1.31023122252225
 6 -1.22933503970397 -1.54483812571257 -0.82509397529753
 6  3.74649259055906  1.44745923122312 -0.33732994939494
 6  2.47630832383238  0.80972230403040 -0.58333989258926
 6  2.25617262156216 -0.46652279807981 -0.89010125512551
 6  3.55508934583458  2.70955896409641  0.06867609470947
 6  1.82225337783778 -3.36340160596060 -1.85396559755976
 6 -5.56875621082108 -2.54516642624262  1.40375031503150
 6 -3.69723178607861 -1.80582564456446  0.09087287228723
 6  2.07498175837584  2.95475190339034  0.05049757275728
 6 -5.04090028632863 -1.52684818801880  0.42806144504450
 6  5.13029150725072  0.75422509250925 -0.45574863126313
 6 -2.68560952315232 -1.10180695229523 -0.48894930933093
 6 -1.35998393609361 -3.87441194349435 -1.90698394209421
 6 -4.52274974177418 -3.52472097779778  1.36544565916592
 6  2.08920939693969 -4.50106232593259 -0.83309616541654
 6  5.42529240554055 -0.23420948484848  0.71884999109911
 6  4.56462224842484  3.80580181148115  0.32215439923992
 6  1.32140338173817  4.10307471497150  0.37468758825883
 6 -6.99613074367437 -3.17235461526153  1.03777324342434
 6 -5.85575417791779 -0.51335606550655 -0.10275174957496
 6 -0.04313930293029  4.02301697329733  0.32038066366637
 6 -0.99045000670067  5.09623071607161  0.57072170077008
 6 -2.21197652385239  4.58131425422542  0.35912731563156
 6  2.95183802510251 -4.06853347244724  0.24000539953995
 6 -5.43525818661866  0.42313754235424 -1.18046911391139
 6  6.71507407360736 -0.75369365346535  0.67818094069407
 6 -3.59196495579558  5.29107540574057  0.35839665476548
 6 -2.13850728702870  3.14504669596960 -0.00741981718172
 6 -0.49742387988799  6.52870673867387  0.83576866666667
 6 -4.03645218211821  5.69408781368137 -1.14098487418742
 1 -0.65318288318832  0.26287199279928 -0.44549510281028
 1  2.99264327892789 -1.27083908600860 -0.96072558115812
 1  2.78293954485449 -2.86136084298430 -2.36983941864186
 1  1.41091787108711 -3.68342025962596 -2.71238360486049
 1 -5.56811861806181 -2.15641403050305  2.42693485398540
 1  5.24587489768977  0.12726744324432 -1.42538569156916
 1  6.01188315391539  1.62628693799380 -0.45536683628363
 1 -2.95635373107311  0.01768626482648 -0.69705261086109
 1  0.40550688238824  1.85591677467747 -0.23284275637564
 1 -1.58267385858586 -4.73581568576858 -1.35576638233823
 1 -2.41720535023502 -3.36646434843484 -2.20669999019902
 1 -0.95268521962196 -3.97483565796580 -2.88439204220422
 1 -2.62293605140514 -3.43706985538554  0.79301654865487
 1  1.29316512321232 -4.79376185868587 -0.18301201870187
 1  2.44362354815482 -5.39668237673767 -1.41828634253425
 1  4.82245666666667 -1.04439049014901  0.86820740694069
 1  5.43295749534954  0.29728416501650  1.73781825252525
 1  4.45728324862486  4.51690215761576 -0.36364634733473
 1  5.42646926972697  3.52065478467847  0.13638016121612
 1  4.41810122752275  4.45947145524552  1.27749905380538
 1  1.68195402740274  4.97993792339234  0.95822560946095
 1 -7.71044381598160 -2.38619461396140  1.48857355135514
 1 -7.11238688298830 -4.13184094999500  1.73372574047405
 1 -6.98309649364936 -3.32368013151315 -0.22643105390539
 1 -6.85618295999600 -0.60807113841384  0.53331525942594
 1 -4.83617845964596  1.20933513041304 -0.77606145424542
 1 -6.40742257195719  0.80927855615562 -1.52861954045405
 1 -4.95325382088209  0.10832767896790 -1.93023423612361
 1 -3.48803868316832  6.31057371317132  0.97156486048605
 1 -4.28386606410641  4.53748288048805  0.76814895269527
 1 -0.19454488918892  6.51777373727373  1.93635636813681
 1 -1.40548193149315  7.30794749024902  0.67286654305431
 1  0.52872205980598  6.96019451995200  0.17243357755776
 1 -3.35454575037504  6.57574345744574 -1.56174399049905
 1 -5.19900172327233  6.17666040704070 -1.40748589028903
 1 -3.83037755885588  4.65560705300530 -1.68430816921692
 1  3.42476778327833 -4.34057828802880  2.14541317831783
 1  8.02049929462946 -1.94977562986299  1.63322348494850

