%nproc=4
%Mem=4GB
# td=(NStates=1) B3LYP/SVP 

TD

0 1
 8 -4.48853897469747 -4.69264934613461  1.93230859445945
 8  2.79366996509651 -4.99022357155716  1.27411534333433
 8  7.20235061646165 -1.49602714381438  1.78910913141314
 8  3.56242797559756 -3.15729485468547  0.21268412681268
 8  7.75371412341234 -0.50235161446145 -0.06980654995500
 8 -2.95849617841784  2.32169956745675 -0.11471637623762
 7 -0.31317569926993 -0.54005335513551 -0.62498113431343
 7  1.66574425712571  1.82831521032103 -0.41963362546255
 7 -3.49804674767477 -3.06717576437644  0.67052552385239
 7 -0.71318272117212  2.95925634383438 -0.20437546144614
 6  0.65202643504350 -2.41182662096210 -1.33382546564656
 6  0.96040497429743 -1.08174812591259 -0.97381993729373
 6 -0.71029535463546 -2.65994988438844 -1.26350655005501
 6 -1.26825893209321 -1.47500114201420 -0.68810027592759
 6  3.86956489778978  1.38030251555155 -0.31779799619962
 6  2.60289098209821  0.79927125892589 -0.54795635423542
 6  2.19577658195820 -0.49398554435444 -0.82769501450145
 6  3.57497133403340  2.84719272747275 -0.07368814171417
 6  1.65287644014401 -3.43054832063206 -1.92477267826783
 6 -5.59273860906091 -2.50303221282128  1.25808574857486
 6 -3.68830089298930 -1.90456551855186  0.04752853785379
 6  2.18226248644865  2.99143557175718 -0.13094057105711
 6 -5.10109630593059 -1.48009351255126  0.41955059395940
 6  5.15857433553355  0.67538720872087 -0.28881193759376
 6 -2.67495845804580 -1.10816758835884 -0.46016643104310
 6 -1.47119505720572 -3.88314281658166 -1.75646889058906
 6 -4.52596006280628 -3.65665417111711  1.30055917051705
 6  2.08429890589059 -4.54985720542054 -0.92700555635564
 6  5.48151802810281 -0.36888295219522  0.85121322742274
 6  4.55391117731773  3.93033426472647  0.25237742154215
 6  1.32985422682268  4.11826623412341  0.14114423392339
 6 -6.99746087668767 -3.08833621342134  1.06953641974197
 6 -5.85041364386439 -0.56874160406041 -0.18358983338334
 6 -0.12490747974798  4.10069474107411  0.08461708730873
 6 -1.00258121982198  5.16661775477548  0.43955858445845
 6 -2.26274160036004  4.64285040784078  0.45685708860886
 6  2.91008384968497 -4.10119673877388  0.26261766076608
 6 -5.46618127892789  0.47183241184118 -1.29510057705771
 6  6.94835740194019 -0.68486677077708  0.68760188278828
 6 -3.65460121942194  5.35701199939994  0.60830164526453
 6 -2.07324076037604  3.21081327262726 -0.01312038723872
 6 -0.53223736123612  6.53922779077908  0.82252734253425
 6 -4.32526106300630  5.63685209010901 -0.72423319901990
 1 -0.39486705160516  0.43995970157016  0.03945339203920
 1  3.13144715931593 -1.14701670377038 -0.98230773937394
 1  2.48826007690769 -2.83745845274527 -2.39376181088109
 1  1.18471525082508 -3.87255917351735 -2.79313167966797
 1 -5.57057886408641 -1.99663805290529  2.30795295579558
 1  5.09022933313331 -0.00110539403940 -1.32474562756276
 1  5.94733669926993  1.25587989728973 -0.42329362896290
 1 -2.69155725142514  0.09680417661766 -0.49719262486249
 1  0.41746807850785  1.67683886688669 -0.50291976407641
 1 -1.37655324652465 -4.83594569876988 -1.18530933663366
 1 -2.63657728742874 -3.71620932293229 -1.80299962016202
 1 -1.17629758085809 -4.14143231763176 -3.00463406640664
 1 -2.64797855565557 -3.64684083248325  0.51719896689669
 1  1.08587439413941 -5.16603908640864 -0.72863658115812
 1  2.71345053085309 -5.08142085058506 -1.63438795269527
 1  4.94007842884288 -1.10539659075908  0.89761034723472
 1  5.35995019461946  0.04364880148015  1.81821629232923
 1  4.42864038433843  4.86120658805881 -0.30753073577358
 1  5.66649327212721  3.67175989518952  0.27073359655966
 1  4.47564698209821  4.15121062916292  1.31498280218022
 1  1.60080591259126  5.08184811441144  0.47498728562856
 1 -8.09643241484148 -2.54797079157916  1.14754944894489
 1 -7.13876952125213 -4.00688845474548  1.66186855475548
 1 -7.22427061106111 -3.55172293579358  0.06976856605661
 1 -6.83498083978398 -0.51967229852985  0.13294522242224
 1 -4.54149899169917  1.12326652355236 -1.07299114721472
 1 -6.42171400110011  1.03325095339534 -1.90071675017502
 1 -5.11952044754475 -0.17628078187819 -2.16730794349435
 1 -3.64462434173417  6.24160681648165  1.10580828482848
 1 -4.25026270377038  4.51535066726673  1.00960309810981
 1  0.65950051535154  6.29904186408641  1.35782851535154
 1 -1.25834721802180  7.26291298679868  1.33238249464947
 1 -0.33942475487549  7.17329583008301 -0.21796546234623
 1 -3.58191848764877  6.26575245834583 -1.29946776287629
 1 -5.24090591369137  6.27563030403040 -0.70722586428643
 1 -4.52716723782378  4.62457394969497 -1.20047978637864
 1  3.25529083558356 -4.50204443464346  2.13301193819382
 1  7.94676192089209 -1.87256790909091  2.00198036063606

