--Link1--
%Mem=30GB
%CPU=0-29
%OldChk=lutein-s0.chk
%Chk=lutein-charged.chk
#n wB97XD/Def2TZVP Opt Geom=Checkpoint Guess=Read

lutein-charged

  1  2

--Link1--
%Mem=30GB
%CPU=0-29
%OldChk=lutein-charged.chk
%Chk=lutein-charged-SP.chk
#n wB97XD/Def2TZVP Geom=Checkpoint

lutein-charged-SP

  0  1

