--Link1--
%Mem=30GB
%CPU=0-29
%OldChk=lutein-s0.chk
%Chk=lutein-charged.chk
#n wB97XD/Def2TZVP Opt Geom=Checkpoint Guess=Read

lutein-charged

  1  2

