%nproc=4
%Mem=2GB
# td(NStates=1) B3LYP/6-31G(d,p) nosymm

AlQ3Emi Single Point

0 1
Al  -0.57090700  -0.97148551   0.24807504
O   0.77050299  -2.38143695   0.20341204
O  -2.01509562  -2.01488090  -0.46981847
O  -0.97660189  -1.28344353   2.01762608
C  -0.18799331  -0.67029478   2.93282619
C  -0.29511230  -0.97919012   4.38412991
C   0.70641048  -0.28384360   5.16801579
C   1.54360303   0.76020025   4.70374757
C   1.60207275   0.96792109   3.39978304
C   0.80792126   0.31677305   2.48205009
C   2.50372673   1.85204671   2.67979191
C   2.40687239   1.97521547   1.32582019
C   1.49807610   1.24147362   0.55809355
N   0.68121475   0.39928796   1.14783255
C   1.34780810  -2.50096767  -0.93782330
C   2.18764334  -3.56239519  -1.23454147
C   2.80755251  -3.55342933  -2.53232643
C   2.54654980  -2.55482999  -3.52805789
C   1.57645817  -1.48794664  -3.18827811
C   1.07339083  -1.40803701  -1.93768159
C   1.19118909  -0.49857829  -4.13444533
C   0.23100595   0.44047574  -3.72046974
C  -0.25865357   0.45959876  -2.44324671
N   0.03353129  -0.48566664  -1.51732672
C  -3.12483322  -1.41104223  -0.63934900
C  -4.31940616  -2.10109362  -0.88604895
C  -5.56796020  -1.44527433  -0.92211376
C  -5.65193771  -0.03192640  -0.76040843
C  -3.27176274  -0.09802378  -0.31271116
C  -4.44546771   0.71374215  -0.38150717
C  -4.39601874   1.93856635  -0.10642119
C  -3.15517634   2.53063613   0.35295555
C  -2.08173827   1.75837328   0.42781047
N  -2.04702688   0.49199735   0.11232595
H  -4.21968088  -3.33899670  -1.36188701
H  -6.35287732  -1.94892869  -1.19987809
H  -6.40756954   0.75637377  -0.96858090
H  -5.22263553   2.55786381  -0.08878497
H  -3.09447133   3.60077519   0.71843379
H  -1.19338113   2.29505613   0.94343042
H  -1.12090151  -1.70739534   4.68802985
H   0.73588231  -0.68379807   6.19348624
H   2.04732418   1.28805804   5.42926439
H   3.28920723   2.43423488   3.08579984
H   3.02910882   2.70135160   0.70195435
H   1.25065570   1.49684238  -0.47086870
H   2.28396371  -4.23242448  -0.50567700
H   3.44405922  -4.18232449  -2.81433005
H   2.99873779  -2.49722698  -4.49698758
H  -0.93246718   1.34026373  -2.27404639
H   1.41257317  -0.50461945  -5.20640710
H  -0.03986283   1.18114562  -4.43020529




