%nproc=4
%Mem=2GB
# td(NStates=1) B3LYP/6-31G(d,p) nosymm

AlQ3Emi Single Point

0 1
Al  -0.60111925  -0.89537301   0.20868612
O   0.73769608  -2.36782078   0.07817615
O  -1.85658051  -2.01368209  -0.44228769
O  -0.97796547  -1.31507412   2.01895225
C  -0.19231178  -0.70517100   2.93433763
C  -0.34089427  -0.82399659   4.31346745
C   0.50026093  -0.18341305   5.21347518
C   1.41263944   0.74671279   4.76465600
C   1.52104377   1.08297186   3.38756225
C   0.68030930   0.35308182   2.47422760
C   2.45670178   1.94053856   2.81364277
C   2.48873083   2.06222583   1.43273361
C   1.77800261   1.08422574   0.65146513
N   0.81405777   0.35754175   1.13258206
C   1.30145445  -2.49639448  -1.01331198
C   2.15384586  -3.57957785  -1.35703835
C   2.60701256  -3.71533655  -2.66176377
C   2.42577365  -2.71717584  -3.57806479
C   1.51831574  -1.51077551  -3.24981072
C   1.07049577  -1.35869567  -2.01914889
C   1.19338242  -0.50950445  -4.18412908
C   0.31033792   0.52742771  -3.78586107
C  -0.16843440   0.52643173  -2.43766170
N   0.19397731  -0.43848047  -1.51710023
C  -3.05134042  -1.50872397  -0.46551241
C  -4.28418726  -2.18012893  -0.90312165
C  -5.44345687  -1.45788913  -0.93056826
C  -5.64134195  -0.17736849  -0.74909477
C  -3.25076539  -0.10427934  -0.28212311
C  -4.49195788   0.62996489  -0.29801652
C  -4.50729823   2.01418692   0.02621061
C  -3.26395202   2.55010901   0.35097016
C  -2.02682450   1.81463548   0.43875943
N  -2.03255466   0.43019544   0.12554932
H  -4.19250710  -3.29118646  -1.13521352
H  -6.35165720  -2.10457095  -1.53726609
H  -6.62529939   0.51839210  -0.79919081
H  -5.42390335   2.58342977   0.32434316
H  -3.15456604   3.66784022   0.85100659
H  -1.05706804   2.17431768   0.67480713
H  -0.98254215  -1.46796178   4.70071206
H   0.54727852  -0.43396069   6.18822050
H   2.07448889   1.16159589   5.50778386
H   3.13106467   2.59961397   3.30272779
H   3.34429346   2.76276834   1.10104770
H   2.08633696   1.27631731  -0.34662571
H   2.19616037  -4.33079296  -0.71438996
H   3.13338750  -4.61105253  -2.92210849
H   2.86201647  -2.87992864  -4.57593086
H  -0.75737858   1.49305725  -2.17923286
H   1.60171198  -0.73204200  -5.18878068
H   0.01154523   1.36744640  -4.52584901




