%nproc=4
%Mem=2GB
# td=(NStates=1) B3LYP/6-31G(d,p) 

TD

0 1
 6  12.24654899749975  0.57670827132713 -0.64402052095210
 6 -12.16631894599460 -0.06967200880088  0.90273945284528
 6  13.59467888058806 -0.28829848984899 -0.50573657265727
 6 -13.06117261716172  1.04042843434343  1.22282299669967
 6  13.26789910411041 -1.82251792419242 -0.65582734153415
 6 -13.49671426752675  1.91149966206621  0.07712807990799
 6  11.11668346224623 -0.02266800230023  0.16409394719472
 6 -11.08989665746575  0.38672855515552 -0.15038267306731
 6  12.31526596399640 -2.18756105010501  0.49151312761276
 6 -12.27276715931593  2.56733704190419 -0.59073740964096
 6  11.17726743474347 -1.28276033053305  0.74118068646865
 6 -11.18891368556856  1.57706332813281 -0.70972984668467
 6  11.78695928362836  0.42269339443944 -2.11031951055106
 6  12.52622603600360  2.07593164826483 -0.32457397639764
 6 -12.98285587638764 -1.23489060776078  0.14593842374237
 6 -11.61106997499750 -0.68532170577058  2.17834598279828
 6  9.91507957055706  0.83943005660566  0.39349134963496
 6 -10.04024383128313 -0.52332487458746 -0.28486257405741
 6  10.14633881018102 -1.88993880558056  1.71776441134113
 6 -10.21182415261526  2.06796853595360 -1.82978444334433
 6  8.71000724042404  0.43488344454445  0.23616182238224
 6 -8.59577253565356 -0.34412427772777 -0.31044736763676
 6  7.43277184538454  1.32262106240624  0.42686529912991
 6 -7.54220311421142 -1.19335781088109 -0.50193058995900
 6  7.57246029572957  2.85705834303430  0.60988342534253
 6 -7.94930211841184 -2.64553456455646 -0.79280655825583
 6  6.20261416291629  0.67128151715172  0.19814197319732
 6 -6.28356696659666 -0.82651347394739 -0.41491360306031
 6  4.91045169586959  1.37280961286129  0.31265092409241
 6 -5.09291890369037 -1.58982496029603 -0.55906728832883
 6  3.78434714631463  0.75647321252125  0.24212616191619
 6 -3.80348573377338 -1.00159079177918 -0.27717015471547
 6  2.45833913531353  1.39245995369537  0.33748823672367
 6 -2.57835683508351 -1.77929298799880 -0.18760204030403
 6  2.36456082768277  2.90563993049305  0.37451182448245
 6 -2.62635318071807 -3.13788731523152 -0.68213956405641
 6  1.29587113561356  0.62483382498250  0.38608352535254
 6 -1.33266143924392 -1.11870044204420  0.15118641354135
 6  1.16869124132413 -0.82123707090709  0.29809228952895
 6  0.03151369096910 -1.56048228802880  0.07309355335534
 1  13.99088919471947 -0.04037160766077  0.48676671957196
 1  14.52388940274027 -0.01534991069107 -1.24984852325233
 1 -12.48949531453145  1.55818820902090  1.96199976477648
 1 -13.89381023862386  0.64378387068707  1.73856029412941
 1  14.04512513451345 -2.59578039573957 -0.53641708750875
 1  12.99403528522852 -1.86795069506951 -1.73496962026203
 1 -14.28217160536053  2.63530689068907  0.51405244284428
 1 -13.92454723852385  1.26725639983998 -0.50855487758776
 1  13.25244720852085 -2.31483398999900  1.31105298729873
 1  11.89968742324232 -3.13190688278828  0.42670952655265
 1 -11.98181797389739  3.58683640434043 -0.21589507250725
 1 -12.44664087798780  2.69937344514451 -1.75439934113411
 1  11.54906827732773 -0.58855193249325 -2.51917004970497
 1  12.44962184288429  0.57075173647365 -2.84705127912791
 1  10.86197376867687  1.21557466916692 -2.32664338383838
 1  12.84200515461546  2.18351525342534  0.72833017351735
 1  11.71067947484748  2.62853276417642 -0.48576273327333
 1  13.32312416871687  2.24239450935093 -0.92551482258226
 1 -13.42311154185419 -0.84901891089109 -0.87003310401040
 1 -13.60656282888289 -1.79462526672667  0.71649887058706
 1 -12.08684628782878 -2.09032743764376 -0.10413629612961
 1 -10.93538602950295 -0.01078671807181  2.79690935003500
 1 -10.99275580098010 -1.58543954465447  1.78551256745675
 1 -12.38221228522852 -0.96352081998200  2.89488801690169
 1  10.22653606020602  1.93087794789479  0.71970787868787
 1 -10.48294273897390 -1.49490460046005 -0.54252063006301
 1  9.25959003650365 -1.17835543024302  1.94624838243824
 1  10.76522733683368 -2.18542474037404  2.62980441044104
 1  9.66104817201720 -2.78324817481748  1.28808843044304
 1 -9.72661969726973  1.24530684328433 -2.30927342424242
 1 -9.26052085698570  2.85504902690269 -1.47924797099710
 1 -10.61052131713171  2.54173917931793 -2.79006898019802
 1  8.42266785758576 -0.54763554375438 -0.12608955935594
 1 -8.47160055525553  0.63335752985298 -0.19615326782678
 1  8.14581781388139  3.26568160406041  1.37886726922692
 1  6.60419229992999  3.27315501970197  0.53985656535654
 1  8.16050028772877  3.18142680468047 -0.11339456235624
 1 -8.73158411061106 -2.60878793789379 -1.57246393999400
 1 -8.40257124542454 -3.12379556685669  0.10669680898090
 1 -7.20886543914392 -3.38479113041304 -0.96175506070607
 1  6.23243410791079 -0.46330155695570 -0.14300631733173
 1 -6.13074505910591  0.14215615411541 -0.24770504730473
 1  5.18781213851385  2.48238668276828  0.60750365716572
 1 -5.11574167446745 -2.55358887528753 -0.78324046514651
 1  3.76222648934893 -0.46590116001600  0.18352799119912
 1 -3.79467709890989 -0.04238790889089  0.11582971627163
 1  2.74764546394639  3.27351774787479  1.32350100540054
 1  1.31043824462446  3.21730246204620  0.42303203070307
 1  3.00803786258626  3.44161463496350 -0.42996696629663
 1 -3.41053292289229 -3.42472082798280 -1.53827883868387
 1 -3.09387099289929 -3.89212120502050  0.27525217661766
 1 -1.50180115141514 -3.60489082348235 -0.91237346374637
 1  0.32730513131313  1.27735365056506  0.63878452365237
 1 -1.51359244784478 -0.08999101190119  0.49481175507551
 1  2.12446099059906 -1.37836688638864  0.16634707050705
 1  0.12401291209121 -2.58747378967897 -0.06821768266827

