%nproc=4
%Mem=2GB
# td=(NStates=1) B3LYP/6-31G(d,p) 

TD

0 1
 6  12.18091243384338  0.42544314481448 -0.70411653055306
 6 -12.08645095919592 -0.14133917551755  0.94750392929293
 6  13.44742415511551 -0.49491915191519 -0.60162616161616
 6 -12.98466496639664  0.98541293279328  1.42904361876188
 6  13.13783609780978 -1.93558923132313 -0.38161992079208
 6 -13.55616021212121  1.87980649274928  0.32868323542354
 6  11.09321111501150  0.00450471497150  0.42628016581658
 6 -11.06240390819082  0.46081596389639 -0.05721335613561
 6  12.27373181058106 -2.19153144714471  0.83584756105611
 6 -12.43699358195820  2.51689199739974 -0.43419175507551
 6  11.15079478747875 -1.18758081258126  0.98655522392239
 6 -11.22428722292229  1.60466608840884 -0.65706458015802
 6  11.62370295799580  0.44070519561956 -2.01722020062006
 6  12.54401781518152  1.92088614371437 -0.33284480348035
 6 -12.95133272407241 -1.25493261196120  0.28350218011801
 6 -11.53722259025903 -0.69047222082208  2.27072522072207
 6  9.88011607420742  0.78840495409541  0.46325832633263
 6 -9.95087489438944 -0.53389593169317 -0.32356644444444
 6  10.19953412971297 -1.57642745444544  2.16618925382538
 6 -10.24243721392139  2.14283602270227 -1.64551601650165
 6  8.60021626132613  0.39408936513651  0.26935514171417
 6 -8.59923288168817 -0.28513837913791 -0.20054637753775
 6  7.46676524472447  1.30159896019602  0.44392700530053
 6 -7.50926982088209 -1.23352182728273 -0.50111050795080
 6  7.60724377407741  2.81314395159516  0.51420385738574
 6 -7.89438662686269 -2.59990000110011 -0.80888816641664
 6  6.26050995249525  0.72488687768777  0.19383154215422
 6 -6.20912952285228 -0.76849767236724 -0.52496460816082
 6  4.97863851455145  1.50579291119112  0.23790344934493
 6 -4.97695730753075 -1.58603458125813 -0.63463484508451
 6  3.74472318391839  0.83723128832883  0.13773572287229
 6 -3.73404879007901 -1.09061969466947 -0.47338977667767
 6  2.41413471487149  1.38452916061606  0.15747023492349
 6 -2.44472347174717 -1.77966302500250 -0.61093437353735
 6  2.27809218081808  2.97416678317832  0.25512988628863
 6 -2.41835238063806 -3.29270279677968 -0.67817916801680
 6  1.30219176767677  0.66171751335134 -0.03439852285229
 6 -1.32518069116912 -0.98944751675168 -0.37159586468647
 6  1.24799917211721 -0.81638658585859 -0.15020253995400
 6  0.06912745234523 -1.51228746854685 -0.34104786078608
 1  14.05290539633963 -0.02499006950695  0.25442348524852
 1  13.99944695849585 -0.23205158085809 -1.53602714111411
 1 -12.40411677667767  1.46705909610961  2.20328389318932
 1 -13.82880373797380  0.46693618591859  1.90397683578358
 1  14.13825444744474 -2.55143596129613 -0.22258570437044
 1  12.62471835353535 -2.33501740174017 -1.26741286458646
 1 -14.17711109930993  2.61567492749275  0.75974701230123
 1 -14.33894867866787  1.36948662286229 -0.29571359345935
 1  12.82677464126413 -1.89597210381038  1.81982386438644
 1  11.94428188268827 -3.31466515861586  0.84888174377438
 1 -11.83294308640864  3.30843856455646  0.33851036803680
 1 -12.60585679957996  2.98947245504550 -1.44897879907991
 1  11.13959733023302 -0.66427950525053 -2.26197433013301
 1  12.28371525222522  0.77067172847285 -2.92628920292029
 1  10.83569114041404  1.19301241294129 -2.23986470597060
 1  12.75598655275528  1.86455335723572  0.85642298279828
 1  11.69479788668867  2.45119503040304 -0.54863902090209
 1  13.36427828412841  2.54635490539054 -0.84792706380638
 1 -13.67130636133613 -0.75309931893189 -0.61336743744374
 1 -13.59035120772077 -1.74432023622362  1.24576179687969
 1 -12.41700930413041 -2.05427383228323 -0.20386626912691
 1 -11.03573606450645  0.07689204980498  2.97799745884589
 1 -10.77151367676768 -1.64452545324532  2.06099011521152
 1 -12.29395345934593 -1.17918238613861  3.05825435353535
 1  9.92566597319732  1.91137599769977  0.53040894879488
 1 -10.30026447114711 -1.54525963596360 -0.36706308430843
 1  9.69668374587459 -0.80504809950995  2.41716547414741
 1  10.75458627272727 -2.08968516641664  2.88370980098010
 1  9.46063813101310 -2.31272112211221  1.75380500210021
 1 -9.70463749904991  1.27021933453345 -2.43293579047905
 1 -9.27665247014701  2.56392991499150 -1.03356340254025
 1 -10.58089835483548  3.07391239663966 -2.19035900920092
 1  8.43596918771877 -0.68371915211521  0.01342439203920
 1 -8.29634302950295  0.81497569166917  0.02708905640564
 1  8.20053328542854  2.86452148804880  1.42846222872287
 1  6.70640252095210  3.28391609580958  0.63675625532553
 1  8.24628886658666  3.19914857685769 -0.23533675657566
 1 -8.70178113031303 -2.55333239233923 -1.52259895349535
 1 -8.34425541384138 -2.89700288758876  0.11413755305531
 1 -7.11977653025302 -3.30096274757476 -1.18825771097110
 1  6.04877574207421 -0.32767799459946  0.10508849214921
 1 -6.13789577417742  0.35205714421442 -0.17110738753875
 1  4.99165252255226  2.70370881498150  0.06065897269727
 1 -5.12187228752875 -2.65826934333433 -0.91153329442944
 1  3.75466573327333 -0.29245381528153 -0.06914727632763
 1 -3.55070270147015 -0.00825449554956 -0.40644251095109
 1  2.44581528092809  3.14690508660866  1.31643029832983
 1  1.30298749954996  3.07638837063706  0.18016774427443
 1  2.97450450925092  3.40176064956496 -0.52670664026403
 1 -3.04960683028303 -3.72486084198420 -1.59230424122412
 1 -2.76846845264526 -3.70547254015402  0.28183283468347
 1 -1.55380635193519 -3.63589392379238 -0.99194142054205
 1  0.25860826162616  1.19857577277728  0.03020366556656
 1 -1.21849293789379 -0.03805581838184 -0.23983170927093
 1  2.16674521902190 -1.49013806350635  0.11156159195920
 1  0.16104661546155 -2.58852389468947 -0.40303116401640

