%nproc=4
%Mem=2GB
# td=(NStates=1) B3LYP/6-31G(d,p) 

TD

0 1
 6  12.17051139373937  0.60436103660366 -0.61099721862186
 6 -12.08726104020402 -0.04391943354335  0.96659583848385
 6  13.51039045174518 -0.28850851085109 -0.35870186918692
 6 -13.11360786068607  1.17256164766477  1.34157487188719
 6  13.26567888208821 -1.75966163856386 -0.32871463026303
 6 -13.45650024612461  2.07692620472047  0.06683705080508
 6  11.10455224912491  0.11287555205521  0.29258679647965
 6 -11.11972964076408  0.42105198749875 -0.07779541434143
 6  12.36284072147215 -2.12619491349135  0.77826180248025
 6 -12.13846372897290  2.61686199439944 -0.44458279417942
 6  11.17604731273127 -1.18113016751675  0.83085965436544
 6 -11.08040283448345  1.64542016381638 -0.64836371007101
 6  11.70523111081108  0.53267439253925 -2.04817329592959
 6  12.49051246464647  2.03370742584258 -0.31890340934093
 6 -12.92077966876688 -1.15220233893389  0.23536736663666
 6 -11.53749261726173 -0.59308248184818  2.22991113931393
 6  9.96813487608761  0.91603771737174  0.41454345484548
 6 -9.98069787668767 -0.58457099919992 -0.21110519831983
 6  10.08013218951895 -1.84836464816482  1.80325296019602
 6 -10.02639560976098  2.05871761086109 -1.65187665256526
 6  8.65215145484548  0.56478643484348  0.14665287148715
 6 -8.62365532393239 -0.31814167946795 -0.15999232213221
 6  7.48664723292329  1.38578737903790  0.24748736133613
 6 -7.59696859075908 -1.36117459255926 -0.41495189208921
 6  7.64211726142614  2.78650128732873  0.64514695169517
 6 -8.00671785998600 -2.70831084218422 -0.69735701330133
 6  6.23796769826983  0.69267365636564  0.23693585258526
 6 -6.21065967586759 -0.92191301390139 -0.33302541424142
 6  5.01064171487149  1.36161849374937  0.26063572257226
 6 -5.08509812161216 -1.77801377917792 -0.50273165476548
 6  3.72091080268027  0.75727329252925  0.16855880518052
 6 -3.78861424662466 -1.18562919561956 -0.33928636633663
 6  2.29388268966897  1.29881058875888  0.11546603450345
 6 -2.55069406880688 -1.82727778647865 -0.46277955805581
 6  2.27968233983398  2.78066743324332  0.31560593389339
 6 -2.49721026642664 -3.27243076957696 -0.87015836593659
 6  1.22022357085709  0.46041738333833  0.03148806580658
 6 -1.37423559665967 -1.08578715071507 -0.27152585768577
 6  1.13830820302030 -0.97555250245024 -0.00726824652465
 6 -0.02563202360236 -1.61778801860186 -0.35218897489749
 1  13.96042614841484  0.02936536603660  0.63553159605961
 1  14.14528154195420 -0.28208658435844 -1.19865340374037
 1 -12.46994335933593  1.68164055425543  2.05199876467647
 1 -13.97806866446645  0.91177066936694  1.89487592569257
 1  14.35383600560056 -2.31906272397240 -0.25189863566357
 1  12.82306818851885 -2.16405030503050 -1.22341846514651
 1 -14.20766415461546  2.98627198719872  0.44083512111211
 1 -14.07400218401840  1.69550922512251 -0.69394341644164
 1  12.85336730053005 -2.03133564016402  1.71978386038604
 1  11.96180363486349 -3.12292598469847  0.53196005160516
 1 -11.89546933903390  3.48792651335134  0.44966148314832
 1 -12.42311852575258  3.00493400120012 -1.43195709690969
 1  11.36797016751675 -0.52465554285429 -2.49635776847685
 1  12.44428130883088  0.91290595189519 -2.69890646464646
 1  10.70444801610161  1.13660677237724 -2.13836455595560
 1  12.71049200330033  2.15426232813281  0.75188252875287
 1  11.66426483338334  2.71420133103310 -0.51725588258826
 1  13.35646750305030  2.30111038093809 -0.87843011411141
 1 -13.20606983768377 -0.78324233323332 -0.82417851855186
 1 -13.92771494409441 -1.11717752195219  0.86685390609061
 1 -12.36182378557856 -2.06746515141514  0.23156727422742
 1 -11.02572506340634  0.20263462406241  2.56520617971797
 1 -11.08188471387139 -1.59103010371037  2.02838685488549
 1 -12.31271533553355 -0.59302377027703  2.92480100820082
 1  10.11875528212821  1.97704256435644  0.63878978687869
 1 -10.24548899359936 -1.51775688568857 -0.47386376437644
 1  9.41305538303831 -1.02206980168017  2.12396615421542
 1  10.53063387748775 -2.37560375827583  2.54788621862186
 1  9.53409547674767 -2.49185903590359  1.24200382198220
 1 -9.26928396369637  1.37158947154715 -1.90329282618262
 1 -9.38522332723272  2.83914743674367 -1.31882192839284
 1 -10.29062932793279  2.46997200260026 -2.55601557485749
 1  8.55842143294329 -0.41636241644164 -0.25864281468147
 1 -8.40870426562656  0.78204239833983 -0.11375502800280
 1  8.11721495359536  3.05114014991499  1.68756813931393
 1  6.63582546324632  3.02192989718972  0.52272485218522
 1  8.19996423412341  3.26876553855386 -0.13829705260526
 1 -8.86663761596160 -2.69621668076808 -1.44244093769377
 1 -8.45811679998000 -3.14272746004600  0.25379151845185
 1 -7.21889644224422 -3.21835448674867 -1.11681056625663
 1  6.31329219371937 -0.53971919871987  0.07728571187119
 1 -6.15498748334833  0.16533847234723 -0.08868914571457
 1  4.80196355365537  2.34147259135914  0.52939584638464
 1 -5.17493759405941 -2.73196671307131 -0.69752189328933
 1  3.68946921362136 -0.32551712161216 -0.09146950855086
 1 -3.84152178337834 -0.02034570467047 -0.39972183888389
 1  2.42659335873587  3.05292568866887  1.39287794309431
 1  1.27574477527753  3.21583231503150  0.33393312081208
 1  2.74532159095910  3.22955342884288 -0.40769473907391
 1 -3.02137400700070 -3.58478683458346 -1.85043005380538
 1 -2.97875948174817 -4.01664365726573 -0.05567091569157
 1 -1.51632260356036 -3.46484681908191 -1.12698492489249
 1  0.25956835763576  1.20955687088709  0.15583622882288
 1 -1.53069415801580 -0.00785279807981 -0.00835856195620
 1  1.97143568806881 -1.51252030173017 -0.10493005720572
 1  0.14387489828983 -2.60849589188919 -0.75322618351835

