%nproc=4
%Mem=2GB
# td=(NStates=1) B3LYP/6-31G(d,p) 

TD

0 1
 6  12.06833117571757  0.38351895239524 -0.72202832173217
 6 -12.06873918801880 -0.19049409100910  0.91347052595260
 6  13.27953736643664 -0.54049370937094 -0.56760275927593
 6 -12.99909640954095  0.96746113761376  1.39410012441244
 6  12.98776109030903 -1.98662433483348 -0.38505026382638
 6 -13.33114771087109  1.91481999409941  0.26388675577558
 6  10.95149694359436 -0.01703743924392  0.32331986978698
 6 -10.97868553635363  0.40642052435244 -0.01924955975598
 6  12.16044048144814 -2.25982827682768  0.91864584088409
 6 -12.13564344694469  2.59112942114211 -0.44701303720372
 6  10.98796850485049 -1.14675673017302  1.04754132253225
 6 -10.96102089628963  1.65901152295230 -0.64669354305431
 6  11.44557514521452  0.30745187028703 -2.04473295189519
 6  12.49698311171117  1.87090114521452 -0.48714023302330
 6 -12.89549714051405 -1.29002612131213  0.34696852675268
 6 -11.33280214821482 -0.83167634123412  2.15752390059006
 6  9.86929499209921  0.96330244384438  0.36233823432343
 6 -9.90248005490549 -0.55386792889289 -0.27024111191119
 6  10.05987016331633 -1.62853266496650  2.04035667056706
 6 -10.00387335753575  2.13497523662366 -1.69793125802580
 6  8.55305154485449  0.55925588178818  0.24513271947195
 6 -8.54496745514551 -0.22725259055906 -0.39562588548855
 6  7.36446501470147  1.39089789008901  0.31721433403340
 6 -7.44685357925793 -1.25556403150315 -0.49389978687869
 6  7.59217226692669  2.84372700990099  0.63046548354836
 6 -7.85721290949095 -2.72569258035804 -0.69188646624662
 6  6.09733363486349  0.88052244124412  0.20189234823482
 6 -6.14041265116512 -0.78101892449245 -0.43577568926893
 6  4.82913356405641  1.52255458735874  0.28981864086409
 6 -4.87441705350535 -1.51720769856986 -0.65828721032103
 6  3.68413712531253  0.83807137233723  0.13769571887189
 6 -3.69812519771977 -0.90833146584658 -0.43316575427543
 6  2.30844414581458  1.40594130183018  0.20412490039004
 6 -2.38585758515852 -1.74856991569157 -0.54029730983098
 6  2.27397176877688  2.82963232973297  0.43865823912391
 6 -2.45653619901990 -3.22587611411141 -0.79712106220622
 6  1.28793034153415  0.63377471907191  0.07022193919392
 6 -1.26364453755376 -0.96128470047005 -0.31379008410841
 6  1.21560593279328 -0.86501144834483 -0.10020754045405
 6  0.03815435503550 -1.54211045084508 -0.31151490749075
 1  13.80814091989199 -0.28309588008801  0.27587563046305
 1  13.91638865266527 -0.48655703140314 -1.40701423982398
 1 -12.31198756375638  1.22012440264026  2.28017158195820
 1 -14.00554141174118  0.69600909320932  1.79005544364437
 1  13.78233885588559 -2.60805162286229 -0.51725517131713
 1  12.43205908760876 -2.47391129112911 -1.17259338263826
 1 -14.25803919211921  2.67710107010701  0.47828886648665
 1 -13.68441322512251  1.28993866806681 -0.45321934403440
 1  12.91033299709971 -2.06290879747975  1.69479136113611
 1  11.78777623212321 -3.16136982908291  1.07136399199920
 1 -11.75065485758576  3.44691241194119  0.02606912391239
 1 -12.60357657155716  3.13801730953095 -1.34203810501050
 1  11.16684005450545 -0.65032811011101 -2.49252738543854
 1  12.13833071377138  0.78397305860586 -2.82501907590759
 1  10.46834440574057  0.95931904360436 -2.14514523402340
 1  12.64422537663766  2.05218212011201  0.81163850435044
 1  11.86690509740974  2.58630854175418 -0.68437259425943
 1  13.18674053035303  2.15141541144114 -0.95784805590559
 1 -13.49304853555356 -0.96252026102610 -0.45632173287329
 1 -13.81655382798280 -1.83928973317332  0.98559578027803
 1 -12.27058466166617 -2.12347075197520 -0.05592147464747
 1 -10.82365485638564 -0.13054869426943  2.88040769986999
 1 -10.69596612201220 -1.61894289498950  1.80875489168917
 1 -12.02860692469247 -1.37455192309231  2.74550307840784
 1  10.15541894849485  2.12517737783778  0.58481438933893
 1 -10.13176762146215 -1.68752386238624  0.10604422642264
 1  9.36132020952095 -0.96553414811481  2.45611936953695
 1  10.76343715781578 -2.06903310121012  2.78892032203220
 1  9.62243431063106 -2.63353320332033  1.62152177377738
 1 -9.77773480878088  1.21832414501450 -2.36118861576158
 1 -8.91463626852685  2.63323684568457 -1.15181522772277
 1 -10.60137040204020  2.90637564296430 -2.33243321662166
 1  8.40919651045104 -0.49117989818982  0.06411946154615
 1 -8.20023341854185  0.88140233433343 -0.31882553505351
 1  8.42527575967597  2.80697573347335  1.68938832133213
 1  6.66518839953995  3.55177288148815  0.72593517321732
 1  8.20178441614161  3.36531519351935 -0.08635185808581
 1 -8.28403935613562 -2.94936199529953 -1.76670336393639
 1 -8.43029401770177 -3.12009519681968  0.16383252255225
 1 -6.97529208180818 -3.57256990829083 -0.47908679387939
 1  6.19798066256626 -0.27271249804981 -0.02523454015402
 1 -6.13615560016001  0.24959689818982 -0.27165744254426
 1  4.81249460676068  2.43968241234123  0.49497240404040
 1 -4.86616671697170 -2.58423193959396 -0.74159630073007
 1  3.84611487818782 -0.13633820372037 -0.20309067066707
 1 -3.50671830303030  0.21626795669567 -0.27328919561956
 1  2.54210490989099  2.99094949104911  1.65159381468147
 1  1.14118131893189  3.08207893969397  0.22023175067507
 1  2.70172723152315  3.43879435293529 -0.17795176477648
 1 -2.99389125872587 -3.27663601950195 -1.66969197999800
 1 -3.05361696749675 -3.71246323922392  0.01489614101410
 1 -1.56474744604460 -3.74112444684468 -0.94204643104310
 1  0.17944034483448  1.19361527672767 -0.01934128892889
 1 -1.40983207180718 -0.07886989978998  0.02397467136714
 1  2.16259480398040 -1.43163221292129 -0.06286585078508
 1  0.01803231403140 -2.62277732003200 -0.54811567246725

