%nproc=4
%Mem=2GB
# td=(NStates=1) B3LYP/6-31G(d,p) 

TD

0 1
 6  12.21546588918892  0.47688828932893 -0.59544566346635
 6 -12.26481879597960 -0.09619466106611  0.76147532643264
 6  13.38407782048205 -0.38596825682568 -0.50329632863286
 6 -13.06060256015602  1.09807419891989  1.16402711711171
 6  12.99284159835983 -1.87389306170617 -0.74059581838184
 6 -13.36870146624662  1.94893340544054 -0.03852348524852
 6  11.03191498539854 -0.06766250175018  0.30289782758276
 6 -10.98744641244124  0.32298218051805 -0.05628326312631
 6  12.22178661606161 -2.35475776977698  0.47777175347535
 6 -12.11937181978198  2.55244555275528 -0.76537487338734
 6  11.20705041304130 -1.34463651815182  0.70138670707071
 6 -11.00316511071107  1.51496711851185 -0.73516238993899
 6  11.67480806850685  0.70371149624962 -2.05389386798680
 6  12.50964437783778  1.96051010611061 -0.19874139313931
 6 -13.09887747854786 -1.03571068976898 -0.04520069016902
 6 -11.77319618761876 -0.76792996659666  2.07486563476348
 6  9.94678274087409  0.84739085268527  0.43709571007101
 6 -9.88536834373437 -0.67216975907591 -0.14485857365737
 6  10.09016319261926 -1.85662547424743  1.72322495739574
 6 -9.68875184538454  2.03647538663866 -1.58236970187019
 6  8.51675791549155  0.50073002920292  0.35771397759776
 6 -8.60903386178618 -0.35536540184018 -0.05749207210721
 6  7.45824439263926  1.32990179047905  0.47361997459746
 6 -7.55642453635364 -1.36440491559156 -0.18688908580858
 6  7.67293034273427  2.84235687288729  0.86399883688369
 6 -7.89239642784278 -2.79415942704270 -0.53572084968497
 6  6.17507140864086  0.88252264126413  0.26598875787579
 6 -6.26829543944394 -0.97162798539854 -0.13602571427143
 6  4.88424907560756  1.52625495739574  0.29773943294329
 6 -4.99717932973297 -1.62418839663966 -0.20765214681468
 6  3.68564727632763  0.82993055825583  0.08089003830383
 6 -3.82572795799580 -1.02408304100410 -0.14143658135814
 6  2.38108140954095  1.36826753445345  0.06431091899190
 6 -2.46600559996000 -1.65856091479148 -0.35451873197320
 6  2.26962133373337  2.93184255075508  0.29179355265527
 6 -2.47032757815782 -3.18938246474647 -0.57034838493849
 6  1.17236878537854  0.63280462206221 -0.04434951795180
 6 -1.32340051315132 -0.95122369436944 -0.25728443354335
 6  1.14356872907291 -0.75895084228423 -0.19975749544955
 6  0.00453099269927 -1.45701194099410 -0.32432618861886
 1  13.82591269706971 -0.33589115961596  0.54770281318132
 1  14.15166218001800 -0.18854723042304 -1.33059659805981
 1 -12.35310167516752  1.67411980218022  1.83100666546655
 1 -13.89060991859186  0.76152564486449  1.69871630973097
 1  13.89736035803580 -2.48777959565957 -0.62504595039504
 1  12.52368825052505 -2.10765466546655 -1.83383950725073
 1 -14.08939232743274  2.72974633463346  0.33001403900390
 1 -14.15349013281328  1.52222189638964 -0.79992401450145
 1  12.82154411821182 -2.13026553315332  1.34743662566257
 1  11.82605005950595 -3.40044373647365  0.27491434703470
 1 -11.68234802690269  3.48588630933093 -0.33214669766977
 1 -12.28153436733673  2.83997750555055 -1.86428032923292
 1  11.39033240374037 -0.32272534983498 -2.49696782948295
 1  12.36960384108411  1.09758441974197 -2.61685825982598
 1  10.75104267556756  1.28903201490149 -2.18768948844884
 1  12.92115306940694  1.87087398929893  0.90624796529653
 1  11.97602600950095  2.70671058195820 -0.33539769676968
 1  13.31146300260026  2.21057132703270 -0.67021929302930
 1 -13.54951418211821 -0.41756576557656 -0.94558065876588
 1 -13.95536770937094 -1.39551535573557  0.73193041374137
 1 -12.60313791699170 -2.06552495739574 -0.55803168566857
 1 -10.95416790769077 -0.22678831823182  2.55334499359936
 1 -11.10349687508751 -1.76752775347535  1.88696271247125
 1 -12.52360642464246 -0.76452091999200  2.93499202730273
 1  10.00266367296730  1.74348920902090  0.52829873777378
 1 -10.31779622432243 -1.72589769976998 -0.15530190819082
 1  9.66613069056906 -0.97070466516652  2.18526228382838
 1  10.72639345344535 -2.40772697059706  2.28793022302230
 1  9.36766883408341 -2.56838668866887  1.16566618821882
 1 -9.29817685298530  1.15936824942494 -1.79089158605861
 1 -9.07981278617862  2.77758128012801 -0.88235828202820
 1 -9.95080534553455  2.65686069146915 -2.44601457475748
 1  8.34871046184618 -0.65098587878788  0.30438348794879
 1 -8.43978737393739  0.57488168226823  0.39433578107811
 1  8.32844607670767  2.89375441134113  1.77240662316232
 1  6.82571445214521  3.57217492169217  1.21021360106011
 1  8.16376061376138  3.21888055005501  0.04172094919492
 1 -8.30706165836584 -3.01122818191819 -1.36200289388939
 1 -8.50225121342134 -3.25270845814581  0.37213335263526
 1 -6.98856340894089 -3.42096474777478 -0.46887577277728
 1  6.25140600510051 -0.13131835863586  0.04099208250825
 1 -6.04372635723572  0.20193213171317  0.10950067326733
 1  4.98511186848685  2.63431187528753  0.44695760256026
 1 -5.00316041634163 -2.74629814621462 -0.41408354945495
 1  3.94792505920592 -0.13669823972397  0.07212685108511
 1 -3.56453408460846  0.05813214311431  0.26390452375237
 1  2.94824552395239  3.20198059415942  1.38510716601660
 1  1.30021722252225  3.04103483528353  0.33176290379038
 1  2.67666472527253  3.30061053455346 -0.63400737033703
 1 -3.12691456105610 -3.64087244314431 -1.26113112391239
 1 -2.58752035783578 -3.44350634353435  0.58119277067707
 1 -1.60641161246125 -3.77181751615162 -0.97183941034103
 1  0.14796719751975  1.22853876907691 -0.36762611741174
 1 -1.43544463306331  0.21179916711671 -0.28291601770177
 1  2.18259680418042 -1.28667771747175 -0.13136270047005
 1  0.10761127192719 -2.51527656995700 -0.40321118201820

