%nproc=4
%Mem=2GB
# td=(NStates=1) B3LYP/6-31G(d,p) 

TD

0 1
 6  12.13943828642864  0.46595719621962 -0.65993211211121
 6 -12.15863817791779 -0.09080412201220  0.84696387528753
 6  13.45526493919392 -0.37967762776278 -0.56368236723672
 6 -12.94286078597860  1.07756214771477  1.38399911431143
 6  13.07700001420142 -1.86597226962696 -0.43891565036504
 6 -13.30003459955996  2.07661617371737  0.24111447854785
 6  10.98199999389939 -0.02608834433443  0.29316685448545
 6 -11.01476914471447  0.34791467376738 -0.16172380718072
 6  12.24017845524553 -2.08693098709871  0.81068504480448
 6 -11.98908879147915  2.63221352955296 -0.47908624452445
 6  11.03210291829183 -1.19706176067607  0.95413198159816
 6 -10.98172296649665  1.65094071587159 -0.75603447714771
 6  11.62678326602660  0.49638076317632 -2.17008548714871
 6  12.55708912231223  1.95091914701470 -0.38802032103210
 6 -13.11668925972597 -1.08354547324732  0.27997182708271
 6 -11.61212008000800 -0.72470564416442  2.17509565776578
 6  9.81393945654566  0.87641375497550  0.41887388788879
 6 -10.01029083598360 -0.61062360446045 -0.19908399619962
 6  10.06777095339534 -1.67206701840184  2.01459409430943
 6 -9.90691366156616  2.07115885498550 -1.74009547444744
 6  8.52897913761376  0.56918687488749  0.27244545074507
 6 -8.62117507590759 -0.40931079637964 -0.11162748564856
 6  7.39794836303630  1.42700150045005  0.44521713431343
 6 -7.52123101700170 -1.28201667676768 -0.37983838073807
 6  7.61870492019202  2.92060469766977  0.76501893889389
 6 -7.91043823202320 -2.77025703680368 -0.73028030563056
 6  6.14850875237524  0.83240762976298  0.23330548954895
 6 -6.27843645354535 -0.76241706430643 -0.29430154185419
 6  4.82374302500250  1.46806913881388  0.22688234723472
 6 -5.01766137793779 -1.49611558935894 -0.49391077267727
 6  3.73664237583758  0.77339490469047  0.08406035533553
 6 -3.71765715091509 -1.07380801350135 -0.36876931463146
 6  2.44171747314731  1.29973068076808  0.22703719161916
 6 -2.40214921432143 -1.86433149184918 -0.52415569566957
 6  2.30728510011001  2.77982734923492  0.42637701100110
 6 -2.54720526592659 -3.34618814531453 -0.74826617671767
 6  1.25918746724672  0.52556389798980  0.08170308730873
 6 -1.28984715781578 -1.18379695169517 -0.24300300540054
 6  1.24117849004901 -0.86686163336334 -0.36951447114711
 6  0.09714025362536 -1.70694693449345 -0.42543629962996
 1  14.14168427422742  0.01613404290429  0.24176221912191
 1  13.90779779357936 -0.18748712441244 -1.57867140554055
 1 -12.41064742974297  1.66751914211421  2.22217578237824
 1 -13.86449730733073  0.85478497079708  1.93927036513651
 1  13.85654627662766 -2.67172799049905 -0.50995444124412
 1  12.62309819151915 -2.02201610161016 -1.31066719001900
 1 -13.99639302750275  2.87882124212421  0.57767880548055
 1 -13.88767355115512  1.51731140534053 -0.33272729482948
 1  12.86563852765276 -2.07144965156516  1.74252613461346
 1  11.92383983848385 -3.10325401750175  0.70501735733573
 1 -11.70936072817282  3.45091281198120  0.12783930093009
 1 -12.30816703060306  3.13806731453145 -1.47038093929393
 1  11.48270164066407 -0.40172324962496 -2.48635676837684
 1  12.28483536423642  0.89995465676568 -2.92987956195620
 1  10.46787435873587  0.98870198189819 -2.36335705520552
 1  12.84282523662366  2.27724462636264  0.65170251075108
 1  11.63722212911291  2.58255816671667 -0.83075723272327
 1  13.50136199249925  2.35148541844184 -1.05057732883288
 1 -13.81110034073407 -0.62866687568757 -0.36848294899490
 1 -13.82807498009801 -1.47656346054605  0.92521974267427
 1 -12.61360896409641 -1.97186559145915 -0.34884076657666
 1 -10.71895438633863 -0.05381102050205  2.61557121622162
 1 -11.04709123452345 -1.70681168186819  1.96111012721272
 1 -12.61919598359836 -0.64901936983698  2.77096562466247
 1  10.12026543314331  1.87611247134714  0.82724863276328
 1 -10.23979842454245 -1.50078518851885 -0.70462684068407
 1  9.37109118661866 -0.85464305900590  2.56621037863786
 1  10.59559037313731 -2.01114731263126  2.93421485148515
 1  9.52140420762076 -2.58741859185919  1.87047666926693
 1 -9.33128016331633  1.25388770137014 -1.94379687658766
 1 -9.34727953285328  2.68263178517852 -1.00596064226423
 1 -10.37116738173818  2.32470747614761 -2.54923489678968
 1  8.40779637043704 -0.47033781398140 -0.03005995639564
 1 -8.33002639783978  0.60622481658166  0.37422376987699
 1  8.09742297439744  3.13757879377938  1.62615199769977
 1  6.60565244594459  3.33078078227823  0.67347992769277
 1  8.24731896959696  3.27140580258026  0.10326710381038
 1 -8.62438339053905 -2.89259631873187 -1.47187388098810
 1 -8.33803479177918 -3.19867305460546  0.08015415471547
 1 -6.89662421502150 -3.31505415671567 -0.85844472967297
 1  6.17640850535054 -0.23816904370437 -0.06046806350635
 1 -6.07056904150415  0.25326726522652  0.07865758895890
 1  4.82804616191619  2.47041548564856  0.38393129992999
 1 -5.08879898019802 -2.47749126552655 -0.74153629472947
 1  4.02179244594459 -0.29858442834283 -0.21476183778378
 1 -3.67523515471547  0.04811114101410 -0.44731659835984
 1  2.70338103750375  2.83139353545355  1.54141279657966
 1  1.16505370617062  3.04934566636664  0.40816054355436
 1  2.86962402120212  3.33662413591359 -0.36841081068107
 1 -3.01700356995700 -3.48231658755876 -1.78876388718872
 1 -3.26790839663966 -4.01785377827783 -0.02624797339734
 1 -1.55881685298530 -3.87036737113711 -0.67323955035504
 1  0.34293669446945  0.98023393859386  0.32096274147415
 1 -1.66466755535554 -0.13033504630463 -0.07622534863486
 1  2.18916746124612 -1.45065411511151 -0.51141070527053
 1  0.21181169196920 -2.70301534383438 -0.66716757765777

