%nproc=4
%Mem=2GB
# td=(NStates=1) B3LYP/6-31G(d,p) 

TD

0 1
 6  12.18328267086709  0.52251285178518 -0.57661378027803
 6 -12.14410672477248 -0.03359840144014  0.73115229412941
 6  13.45607502020202 -0.31762142214221 -0.54174017301730
 6 -13.11260776067607  1.07007139863986  1.09444015841584
 6  13.17691000520052 -1.81769744214421 -0.57715947474747
 6 -13.45202979907991  2.01648016011601  0.03551391849185
 6  11.04040583448345 -0.01497723322332  0.31220875867587
 6 -10.95761342914291  0.33891377367737 -0.03247088188819
 6  12.26831126852685 -2.20218251225123  0.62458643494349
 6 -12.12317219981998  2.56406671487149 -0.54803313921392
 6  11.04197390539054 -1.20520257475748  0.80895746414641
 6 -10.97832262646265  1.61898752055206 -0.75655452915292
 6  11.60135072277228  0.63082420752075 -2.03162164076408
 6  12.60612402580258  1.97434148924892 -0.23550506950695
 6 -12.93875146594659 -1.14497161586159  0.00744457435744
 6 -11.69453832183218 -0.64477765136514  2.15687383558356
 6  9.88951701430143  0.91002711631163  0.29636163666367
 6 -9.92159196609661 -0.53302584468447 -0.13835792359236
 6  10.00820499679968 -1.94839465116512  1.69350198509851
 6 -9.82218518871887  2.16355809490949 -1.60931239613961
 6  8.62321856155616  0.50752070827083  0.29358756495650
 6 -8.57027998639864 -0.33439330463046 -0.08507483038304
 6  7.40795936413641  1.38126692699270  0.36190880348035
 6 -7.44938383228323 -1.30782925802580 -0.28673907080708
 6  7.54599764946495  2.94649728692869  0.57713015001500
 6 -7.95424261246125 -2.79056906800680 -0.60689796739674
 6  6.20430433193319  0.75863025202520  0.24799695869587
 6 -6.19017762766277 -0.99175999859986 -0.14839695139514
 6  4.86138678937894  1.43148548044805  0.38436809580958
 6 -5.06609622142214 -1.79726570437044 -0.31775315691569
 6  3.70232894449445  0.73320088528853  0.20579252855286
 6 -3.76025141034103 -1.10420105280528 -0.36612905060506
 6  2.36394969636964  1.32895360306031  0.19468395629563
 6 -2.52104110351035 -1.80101516021602 -0.48275155525553
 6  2.35471984358436  2.79620898739874  0.36478085138514
 6 -2.63816436183618 -3.20610413691369 -0.69140049014901
 6  1.27337888638864  0.54184552615262  0.09850476747675
 6 -1.33298147124712 -1.03698227022702 -0.18186689178918
 6  1.20068444064406 -0.82290723792379 -0.14068158785879
 6 -0.03124258465847 -1.56337257705771 -0.15955971197120
 1  14.06513661946195  0.08742117161716  0.27844588748875
 1  14.07825483928393  0.10339196349635 -1.45080861926193
 1 -12.66851321632163  1.64056644684468  1.99309287408741
 1 -14.05517637523752  0.53245273757376  1.57450388848885
 1  14.04509513151315 -2.06011682938294 -0.60330377617762
 1  12.86942282398240 -2.11415531553155 -1.56274239753975
 1 -14.10127351555156  2.83206656665667  0.48803984158416
 1 -13.87504228802880  1.60375004920492 -0.82525654775477
 1  12.58563052685268 -2.19081158775878  1.69991187318732
 1  11.81142859735974 -3.15063875597560  0.56142299789979
 1 -11.72075186728673  3.09004672537254  0.19598611561156
 1 -12.23252946684669  3.25169867766777 -1.40304420562056
 1  11.23851722222222 -0.34159723702370 -2.40948908160816
 1  12.34983186388639  1.04079874117412 -2.65218179217922
 1  10.79302687398740  1.11321443314331 -2.10225094459446
 1  12.54067502160216  2.41012791469147  0.92975031553155
 1  11.84456286318632  2.72536244714471 -0.76897105410541
 1  13.78578043434343  2.00341061096110 -0.50789306040604
 1 -13.30389962066207 -0.77013102210221 -0.89791589228923
 1 -13.84399657225723 -1.31586739093909  0.69946716741674
 1 -12.47186478967897 -1.98800720562056 -0.15297117961796
 1 -11.09922241314131  0.32722708330833  2.51255091419142
 1 -10.87454397979798 -1.36846784748475  2.17348136433643
 1 -12.41153521752175 -0.76835130303030  2.90314884298430
 1  10.05984939153915  2.06458131823182  0.60569647754775
 1 -10.11458590329033 -1.49297440744074 -0.38292467046705
 1  9.57066114361436 -1.31958955365537  2.31060481808181
 1  10.52614342844285 -2.76137233513351  2.22715414541454
 1  9.06966903410341 -2.52287213721372  1.09365898749875
 1 -9.11063809910991  1.26829914251425 -1.81358385528553
 1 -9.26702150705070  3.06798032003200 -1.19517956415642
 1 -10.05790605560556  2.24943994939494 -2.78987896119612
 1  8.19085467626763 -0.52971375157516 -0.06614356475648
 1 -8.32024541974197  0.68148234233423  0.24383073057306
 1  8.09016224832483  3.09259429532953  1.53949333183318
 1  6.60752263296330  3.48993669786979  0.57519009870987
 1  8.29253349104910  3.33757241924192 -0.17149037193719
 1 -8.89141009320932 -2.78334539363936 -1.34829152275228
 1 -8.12767375567557 -3.32332551985198  0.45846198549855
 1 -7.03292784538454 -3.32148479977998 -1.13811269646965
 1  6.12240310481048 -0.33176840364036  0.25657364066407
 1 -6.02776476107611  0.10713265176518  0.27049677287729
 1  4.65462882018202  2.49338778287829  0.41046395319532
 1 -5.08695879617962 -2.86700021642164 -0.37256939803980
 1  3.92586285298530 -0.32935750565056  0.05451508990899
 1 -3.64136176737674 -0.00690436053605 -0.11118298499850
 1  3.00122082148215  3.37959835593559  1.16707536283628
 1  1.33920112091209  3.28812954475448  0.44111383888389
 1  2.64061111991199  3.44009448294829 -0.40415438503850
 1 -3.19591146074607 -3.45962431833183 -1.53605861666167
 1 -3.43937554335434 -3.73269526242624  0.07811246264626
 1 -1.67406837813781 -3.83344367876788 -0.60229245564556
 1  0.24338673947395  1.14505042024202  0.12489313451345
 1 -1.60065115371537  0.01571955915592  0.20133240714071
 1  2.14593313781378 -1.31940098979898 -0.12350191439144
 1 -0.01525101430143 -2.58715375767577 -0.06097695859586

