%nproc=4
%Mem=2GB
# td=(NStates=1) B3LYP/6-31G(d,p) 

TD

0 1
 6  12.04569891249125  0.64618521902190 -0.70609672857286
 6 -12.10823313741374  0.07971292969297  0.80922010091009
 6  13.38172758545855 -0.18100776077608 -0.78501450045005
 6 -13.04284078397840  1.30707509900990  1.18198891329133
 6  13.14832714691469 -1.71216688908891 -0.78609036783678
 6 -13.43501809790979  2.12528104020402 -0.08113774667467
 6  11.00908270217022  0.01612587708771  0.15688322612261
 6 -10.94062172997300  0.46873675597560 -0.17152478727873
 6  12.27600203760376 -2.05228752275228  0.43907788408841
 6 -12.06596647924792  2.67075738393839 -0.72374070997100
 6  11.07849755775578 -1.24989704420442  0.74118068646865
 6 -10.97447224142414  1.63764938673867 -0.81249012271227
 6  11.55870645834583  0.74558568366837 -2.17233571217122
 6  12.49423283668367  2.07578163326333 -0.33518503750375
 6 -12.90699829062906 -1.04337145584558  0.12868669856986
 6 -11.48113698169817 -0.51193436703670  2.17236538473847
 6  9.82358042064206  0.84095020862086  0.36381838233823
 6 -9.88135794269427 -0.52639518161816 -0.26638072587259
 6  10.06032020832083 -1.78757856955696  1.71212384728473
 6 -9.84129709990999  2.07866960606061 -1.83782524742474
 6  8.57051329102910  0.45643559975998  0.27481568776878
 6 -8.56718967736774 -0.37998786408641 -0.38262458535854
 6  7.35042361056106  1.28297709800980  0.48461107370737
 6 -7.56155504940494 -1.39103757885789 -0.44301469836984
 6  7.51372442214221  2.76478911611161  0.94595703270327
 6 -7.94258144634463 -2.76605661676168 -0.51861913951395
 6  6.17570147164716  0.78355274427443  0.24108626762676
 6 -6.28276688658866 -0.97585840844084 -0.25030714241424
 6  4.86472712341234  1.36236856875688  0.30850050905091
 6 -4.96811642344234 -1.75476145394539 -0.34984636623662
 6  3.66868558015802  0.75834339953995  0.40242219151915
 6 -3.83851923712371 -1.15543617631763 -0.25933837153715
 6  2.32650595199520  1.19448015571557  0.49216370427043
 6 -2.45094409380938 -1.85661071977198 -0.31006428652865
 6  2.25009938153815  2.71565093159316  0.67786215951595
 6 -2.50085063046305 -3.45143867036704 -0.41664301440144
 6  1.26043759225923  0.37422876447645  0.39141405840584
 6 -1.34982315541554 -1.15690426242624 -0.19162786788679
 6  1.15392976517652 -0.94853980118012  0.13365584588459
 6  0.01598213781378 -1.73407964776478 -0.18016177217722
 1  13.97856796259626  0.18836126562656  0.05154319721972
 1  13.98354536833683 -0.07964634033403 -1.65515905430543
 1 -12.50221658665867  1.95057744794479  1.96320988578858
 1 -13.84846570417042  0.71047053935394  1.53006944504450
 1  14.05039566156616 -2.30298111581158 -0.78612205800580
 1  12.55813169486949 -1.98790269026903 -1.74820094339434
 1 -14.09077246544654  2.99145250525053  0.12231326892689
 1 -13.78061284508451  1.47848752295230 -0.98134215631563
 1  13.06118808260826 -2.07253976057606  1.23722560456046
 1  12.12281973647365 -3.21775546764676  0.30989784538454
 1 -11.86636642874288  3.50568828952895 -0.17378086108611
 1 -12.22813902780278  2.97881138893889 -1.78590249144914
 1  11.29969333983398 -0.32213529082908 -2.48606673937394
 1  12.31031791249125  1.15673033433343 -2.69674624862486
 1  10.71481905320532  1.30525363706371 -2.20249096859686
 1  13.05995694979498  2.12532943484348  0.57646498699870
 1  11.72427083398340  2.83154306520652 -0.54728888588859
 1  13.44145600190019  2.32988325822582 -0.86108837993799
 1 -13.10049928062806 -0.71676568556856 -1.02346844754475
 1 -13.81161333393339 -1.50998680288029  0.53377059775978
 1 -12.52919052225223 -1.88978738363836 -0.16251213371337
 1 -10.62762525342534  0.06007036763676  2.46661632073207
 1 -11.10247677307731 -1.55240624132413  2.05052906910691
 1 -12.15181924592459 -0.79008347624763  3.12299082718272
 1  10.13279668626863  1.78431329142914  0.61076698459846
 1 -10.17539198389839 -1.52801791179118 -0.57386376437644
 1  9.56620069756976 -0.87433502820282  2.09877363496350
 1  10.48749956405641 -2.25170136803680  2.55095652565257
 1  9.41810387758776 -2.49135898589859  1.28396801840184
 1 -9.19794682998300  1.31405371797180 -2.05958845574557
 1 -9.22822762766276  2.87303082508251 -1.43429347554755
 1 -10.17784804980498  2.70750575597560 -2.62625259855986
 1  8.22581817261726 -0.71809258945895  0.30149319891989
 1 -8.15754915011501  0.74200839493949 -0.45496914941494
 1  8.01880511261126  2.78855389128913  2.12216159865987
 1  6.47310919161916  3.29114681888189  1.03675625532553
 1  8.19921415911591  3.41039970197020  0.40947772487249
 1 -8.67565851805181 -2.98380543964396 -1.44192088568857
 1 -8.51652264056406 -3.15900908820882  0.39507564686469
 1 -7.04325887848785 -3.57538018931893 -0.47496638183818
 1  6.23362422692269 -0.39838506530653 -0.21487350405040
 1 -5.91884386898690  0.12062400090009 -0.22331260806081
 1  4.92193555085508  2.62331077517752  0.48249115591559
 1 -5.16354645494549 -2.72245576197620 -0.66851899299930
 1  3.84595486218622 -0.39427399729973  0.30154979337934
 1 -3.80176780798080 -0.12551622172217 -0.09933179987999
 1  2.80614131353135  3.07688808490849  1.60636929222922
 1  1.17843504430443  2.86485721752175  0.59304903240324
 1  2.55924298309831  3.32795326882688 -0.11051502110211
 1 -3.08618048764877 -3.60183853975398 -1.37317232803280
 1 -3.00379198499850 -3.90527252015202  0.47831248264827
 1 -1.56458743004300 -4.12743307770777 -0.34570679707971
 1  0.37126952775278  0.88152406760676  0.43042368756876
 1 -1.38548963756376  0.00734872207221 -0.02810053615362
 1  2.08430697519752 -1.51814086378638  0.21883231903190
 1  0.28553906470647 -2.84049909220922 -0.39179003990399

