%nproc=4
%Mem=2GB
# td=(NStates=1) B3LYP/6-31G(d,p) 

TD

0 1
 6  12.14133847644764  0.52451305180518 -0.59516563546355
 6 -12.02732504660466 -0.05104014561456  1.02850202910291
 6  13.45730514321432 -0.32549220922092 -0.50377637663766
 6 -12.99684618451845  1.12144653615362  1.42439315371537
 6  13.23432574677468 -1.82702837523752 -0.41223298209821
 6 -13.49949454555455  1.81823033513351  0.18858922602260
 6  11.03589538343834  0.01651591609161  0.33785132293229
 6 -10.98099576737674  0.45382526482648 -0.00613824862486
 6  12.33502794019402 -2.12614490849085  0.82120609690969
 6 -12.38983886648665  2.47400770897090 -0.72583091899190
 6  11.15592530053005 -1.23513556805681  0.89707627602760
 6 -11.10116491069107  1.60102572437244 -0.67509638333833
 6  11.65886647434744  0.52194331943194 -2.06974545314531
 6  12.52069548294830  1.99352340744074 -0.28135965496550
 6 -12.83299088988899 -1.20297741644164  0.52814664456446
 6 -11.35712458045804 -0.52635580918092  2.36215436363636
 6  9.83811187378738  0.79870598419842  0.44995699619962
 6 -9.88399820672067 -0.47437998009801 -0.24114820262026
 6  10.27616179247925 -1.67775758745875  2.09142177707771
 6 -10.12448541874187  2.06987872697270 -1.86173763866387
 6  8.59826606630663  0.47918787498750  0.28213641984198
 6 -8.55656861526153 -0.24663452875288 -0.27626394929493
 6  7.36344491269127  1.41939073937394  0.38909152175218
 6 -7.50454934883488 -1.25521399649965 -0.40975137203720
 6  7.60515356505651  2.85349798699870  0.55445788278828
 6 -7.99956714491449 -2.60674068516852 -0.79405668326833
 6  6.16680058155816  0.79011340034003  0.23779593859386
 6 -6.20939954985498 -0.74828565116512 -0.31755386708671
 6  4.94423507420742  1.40597292919292  0.21611127012701
 6 -5.04173378517852 -1.54939091689169 -0.58254963656366
 6  3.71272998459846  0.64989255445545  0.16829877917792
 6 -3.78401378657866 -1.01608224092409 -0.47799023672367
 6  2.43155645704570  1.21090179787979  0.23498798669867
 6 -2.53896289568957 -1.76165122382238 -0.54201748184818
 6  2.38616298789879  2.69778914541454  0.61668604190419
 6 -2.64892543794379 -3.23746727322732 -0.80605195529553
 6  1.24383593209321  0.45904724632463  0.04873979097910
 6 -1.39809798289829 -1.12600117211721 -0.38265697079708
 6  1.11357572977298 -1.00359530673067 -0.33055057475748
 6 -0.07731719211921 -1.66767300710071 -0.48812256825683
 1  13.89735984178418  0.06627905740574  0.31997003990399
 1  14.07826484028403 -0.21932030773077 -1.36909044744474
 1 -12.53179954495450  1.80703309350935  1.99007257205721
 1 -13.67681853945395  0.70260975327533  2.21977841594159
 1  14.21150177217722 -2.51094191189119 -0.33969741554155
 1  12.76694257595760 -2.26356025602560 -1.30977710101010
 1 -14.28748213641364  2.61968532853285  0.34782582018202
 1 -14.12875765956596  1.06914658885889 -0.48446246834683
 1  12.90503246704671 -1.98970147674767  1.66549843184318
 1  12.05065251975197 -3.12594628672867  0.54526138173817
 1 -12.27011680378038  3.28896661736174 -0.09820330333033
 1 -12.81594780868087  2.68555206300630 -1.64348825002500
 1  11.45783915441544 -0.54129720702070 -2.38211634433443
 1  12.27421430213021  1.07656231753175 -2.79149572357236
 1  10.61500907220722  1.07656076777678 -1.98460918041804
 1  12.85226618071807  2.11125802770277  0.72823016351635
 1  11.84790319721972  2.80460037093709 -0.75680983798380
 1  13.49718157445745  2.25488575847585 -0.65900817191719
 1 -13.64613384408441 -0.79551356035604 -0.16328242894289
 1 -13.43009518211821 -1.72127793199320  1.33774099479948
 1 -12.29018662186219 -2.15338374327433  0.34320843834383
 1 -10.73721621252125  0.38609296989699  2.94668432753275
 1 -10.77339386478648 -1.53230423112311  2.31204522072207
 1 -12.11404546854685 -0.88883335123512  3.07739626772677
 1  10.15274868146815  1.83126798689869  0.62023793169317
 1 -10.21222566726673 -1.52619772977298 -0.38019439743974
 1  9.37195127262726 -0.83620121482148  2.12533629122912
 1  11.00649146324633 -2.00240643854385  2.91477290729073
 1  9.86278834603460 -2.47766761676168  1.43147276887689
 1 -9.31726876217622  1.25117743034303 -2.00771326822682
 1 -9.61088589348935  3.18181170317032 -1.79275932213221
 1 -10.92273253825383  2.10061506690669 -2.88693866716672
 1  8.29985557635763 -0.57900868106811 -0.19935688608861
 1 -8.07446084128413  0.79832402650265 -0.28997264976498
 1  8.00208344044404  2.96290132603260  1.59727911041104
 1  6.56743862456246  3.52265997019702  0.38810138983898
 1  8.26285052275228  3.31836049804981 -0.06867008990899
 1 -8.57996894909491 -2.43955101420142 -1.58999569316932
 1 -8.68502949124913 -2.99948313561356 -0.05280914161416
 1 -7.09896444904490 -3.17447009830983 -1.07110599579958
 1  6.40140100460046 -0.26797202400240 -0.07330934763476
 1 -6.04398638323832  0.28956089458946 -0.19725000180018
 1  4.66839019631963  2.51583002710271  0.69115202200220
 1 -5.27910801110111 -2.65892940934093 -0.92640478157816
 1  3.72039230593059 -0.46592116201620 -0.35550591219122
 1 -3.54169180038004 -0.04527819791979 -0.20232209890989
 1  2.84506520592059  2.83755415151515  1.42126078137814
 1  1.30449765056506  3.11090182198220  0.68035776327633
 1  2.73337039583958  3.40392086558656 -0.07185115471547
 1 -3.38812068166817 -3.44608296419642 -1.88403341414141
 1 -3.23764537033703 -3.66942893579358  0.07464211561156
 1 -1.69655062636264 -3.66005634003400 -1.06042826922692
 1  0.37564996579658  1.00716663186319  0.15573621882188
 1 -1.48649973857386 -0.15121713451345 -0.32496022212221
 1  2.21364990949095 -1.58513756345635 -0.41558112231223
 1 -0.06489597879788 -2.86328137043704 -0.65070593149315

