%nproc=4
%Mem=2GB
# td=(NStates=1) B3LYP/6-31G(d,p) 

TD

0 1
 6  12.09919426202620  0.60554115461546 -0.79057517641764
 6 -12.20046236033603 -0.10560560216022  0.74927410631063
 6  13.59933934663466 -0.30025968596860 -0.62352835183518
 6 -13.07952445234523  1.04689908140814  1.26948766316632
 6  13.25965828002800 -1.82603827622762 -0.64878663746375
 6 -13.52338693479348  1.98225673777378 -0.03232286518652
 6  11.03413520742074  0.00715497999800  0.19689722752275
 6 -10.99845751355135  0.39802968526853 -0.19349698449845
 6  12.47724216161616 -2.15120741474147  0.65987996429643
 6 -12.23426330893089  2.58542885108511 -0.54751308720872
 6  11.22877258525853 -1.28803085758576  0.78182475087509
 6 -11.10458525272527  1.57660328212821 -0.80304917861786
 6  11.60747133483348  0.42549367446745 -2.24102258085809
 6  12.51077449084909  2.03682773787379 -0.48048956795680
 6 -12.92927051785179 -1.21948906760676  0.04771860176018
 6 -11.73129199719972 -0.72077525112511  2.12564071227123
 6  9.89734779737974  0.90515662926293  0.40311231173117
 6 -9.91427123402340 -0.50670321242124 -0.40257434523452
 6  10.30405458175817 -1.75138495019502  1.80547318221822
 6 -10.13311628182818  2.17542928202820 -1.73200466536654
 6  8.59338557825783  0.46747670387039  0.30735894209421
 6 -8.53025598399840 -0.23843370867087 -0.22343866676668
 6  7.37528609680968  1.24986378667867  0.39564217681768
 6 -7.51375026892689 -1.14412288738874 -0.37281767866787
 6  7.64573762346235  2.74582721992199  0.50625306230623
 6 -7.80460764896490 -2.53153316441644 -0.80932821042104
 6  6.04550845234523  0.71199558855886  0.51028318731873
 6 -6.14029263916392 -0.72672349494949 -0.24376648834884
 6  4.90860151085108  1.37744007590759  0.46743640264026
 6 -4.96041565336534 -1.49303528132813 -0.34642602420242
 6  3.74315302690269  0.75623318851885  0.41721367066707
 6 -3.71496688188819 -1.00125075777578 -0.13781621932193
 6  2.39095239663966  1.28881958965897  0.45384987288729
 6 -2.52827182658266 -1.88998405710571 -0.24008728882888
 6  2.17103147474747  2.80588995549555  0.58080245354535
 6 -2.61942248764877 -3.31796532303230 -0.46244759485949
 6  1.23294484298430  0.51504284588459  0.17767268426843
 6 -1.32124029712971 -1.13755232723272 -0.05075378047805
 6  1.16499087128713 -0.85335028222822 -0.11150867056706
 6 -0.04426388678868 -1.65402164196420 -0.34347810381038
 1  13.99620972677268  0.25124755425543  0.33414145704570
 1  14.29727674147415 -0.23126150185019 -1.39350288868887
 1 -12.82531889688969  1.61904429462946  2.07212077687769
 1 -14.07128798639864  0.53692318461846  1.49209564766477
 1  14.24811543354335 -2.53320413811381 -0.54968841464146
 1  12.86071195289529 -2.02962686268627 -1.72833895719572
 1 -14.35863925212521  2.61414477447745  0.48409944754475
 1 -14.15512029582958  1.41319099329933 -0.82499652175218
 1  12.95649761356136 -2.06120862746275  1.57750963296330
 1  11.94769222372237 -3.16838053015302  0.60771762736274
 1 -11.95105489758976  3.17703542424242  0.33304982198220
 1 -12.41336755065507  3.10481398919892 -1.39080298149815
 1  11.34466783728373 -0.56314939223922 -2.37004513721372
 1  12.18082496319632  1.03896855815582 -2.82667924192419
 1  10.68529610091009  0.97233034473447 -2.50804152365237
 1  12.85341629572957  2.18888579047905  0.58993633413341
 1  11.68365677257726  2.71732164306431 -0.76808096509651
 1  13.18385024132413  2.51086135603560 -1.08201047214722
 1 -13.27852708340834 -0.91371538053805 -0.99997609830983
 1 -13.71618379097910 -1.41342714691469  0.87618483918392
 1 -12.30829843304330 -2.05734413931393 -0.00890677317732
 1 -10.99824231513151 -0.11292693209321  2.71403106220622
 1 -11.26018254365437 -1.78012901360136  1.96228024422442
 1 -12.51319538353835 -1.01036550445044  2.87930645874587
 1  9.84503791039104  1.95697055715572  0.45398130603060
 1 -10.18621306600660 -1.45604071407141 -0.73740011801180
 1  9.53035711321132 -0.92188978367837  1.87603136073607
 1  10.90617143124312 -1.97437363526353  2.81696312631263
 1  9.91182324952495 -2.64248409840984  1.38439806140614
 1 -9.03892092739274  1.55498781138114 -1.74828732563256
 1 -9.82711751665166  3.16328985098510 -1.39294934113411
 1 -10.68410867586759  2.30280528592859 -2.68706868016802
 1  8.55292088288829 -0.68742952315232 -0.02942989338934
 1 -8.44384777997800  0.78637283138314  0.25231157865787
 1  8.29872310441044  2.95638067396740  1.40234961746175
 1  6.72053393409341  3.28015571977198  0.75743832353235
 1  8.11402564026403  3.15887454945495 -0.30358358125813
 1 -8.50530148234824 -2.55858291739174 -1.87269396299630
 1 -8.46262725102510 -3.17871105840584  0.08346448574857
 1 -6.88766331893189 -3.06302895419542 -0.89737862306231
 1  6.06615748024802 -0.49924515131513  0.93839182248225
 1 -6.04577656225623  0.26303824232423  0.05000472367237
 1  4.71823518081808  2.46104454855486  0.21458436523652
 1 -5.17210731103110 -2.55264878127813 -0.47930007110711
 1  3.83893416011601 -0.39906447634763  0.33164280268027
 1 -3.36723435463546  0.04399072897290  0.18354648794880
 1  2.72188288768877  3.21428182428243  1.36890554585459
 1  1.22642984378438  3.00770150195020  0.66579630713071
 1  2.33275033383338  3.23324379787979 -0.39664363396340
 1 -2.85142701230123 -3.55331368726873 -1.52095710651065
 1 -3.47187879367937 -3.92436442934293  0.14743939533953
 1 -1.65035600690069 -3.65363569796980 -0.27424965136514
 1  0.26762916371637  0.91125704090409  0.29781042624262
 1 -1.43333442204220 -0.18165017781778  0.39724199809981
 1  2.03598214271427 -1.28088713841384 -0.24101366556656
 1 -0.02906239543954 -2.72791783408341 -0.48624948584858

