%nproc=4
%Mem=2GB
# td=(NStates=1) B3LYP/6-31G(d,p) 

TD

0 1
 6  12.10291463406340  0.51451205170517 -0.82344846374637
 6 -12.13512582668267 -0.10852589418942  0.80291947084708
 6  13.43522293499350 -0.32426208620862 -0.68810480948095
 6 -13.04366086598660  1.13521791329133  1.29661037543754
 6  13.09530184438444 -1.78637430983098 -0.55012677147715
 6 -13.40594519061906  1.98928744084408  0.21138150525053
 6  11.05314710861086  0.00189445394539  0.29266680448045
 6 -10.92545021282128  0.44756463876388 -0.16115375017502
 6  12.32629706710671 -2.11560385438544  0.70194417071707
 6 -12.29401928452845  2.64880518871887 -0.45734407030703
 6  11.18199790779078 -1.14713676817682  0.92239880828083
 6 -11.00078487268727  1.69063468526853 -0.68062693639364
 6  11.44340492819282  0.42826395149515 -2.23188166676668
 6  12.49009242264226  1.98310236533653 -0.54995651465147
 6 -12.97350494129413 -1.08970608930893  0.06523035293529
 6 -11.39189805780578 -0.82413558715872  2.11272942114211
 6  9.88412647524753  0.95429154275428  0.41988398889889
 6 -9.83577338423842 -0.54605714781478 -0.40473456125613
 6  10.21273544984498 -1.45567537923792  2.13226586148615
 6 -10.00045301550155  2.35687742684268 -1.58467993289329
 6  8.56362260196020  0.49168912511251  0.33550175637564
 6 -8.57506046444644 -0.33754361966197 -0.16511283418342
 6  7.37295586378638  1.41379017931793  0.41187379998000
 6 -7.52927182108211 -1.31164964006401 -0.54550494739474
 6  7.65400845054505  2.80767340454045  0.73797623462346
 6 -7.89181636983698 -2.81108111921192 -0.73108038563856
 6  6.20245414691469  0.72107649664966  0.28659081808181
 6 -6.18345695559556 -0.78117894049405 -0.38248035973597
 6  4.91694234493449  1.28651098299830  0.38447810681068
 6 -5.01680129192919 -1.63187916571657 -0.52648403000300
 6  3.74345305690569  0.52755032023202  0.40596254555456
 6 -3.80854623982398 -1.12305293799380 -0.40472290999100
 6  2.48705200660066  1.17453816151615  0.31805629352935
 6 -2.50567956735674 -1.83070812951295 -0.45946922702270
 6  2.32003637523752  2.75470483698370  0.28575294859486
 6 -2.53582412781278 -3.36671019751975 -0.53435478557856
 6  1.24150569906991  0.52718406000600  0.21653657065707
 6 -1.39941811491149 -1.03510208220822 -0.28518722382238
 6  1.10415478767877 -0.96555150235023 -0.00747826752675
 6 -0.08220768116812 -1.61532777257726 -0.14519827582758
 1  13.87094720052005  0.22264469396940  0.32060010291029
 1  13.99868688248825  0.03934555885588 -1.55753929232923
 1 -12.43391975697570  1.69788217841784  2.06918048284828
 1 -13.84299515711571  0.76498599089909  1.68911534963496
 1  13.97310793279328 -2.38385920362036 -0.81239468526853
 1  12.65156103780378 -1.98594249424943 -1.61296742004200
 1 -14.03565695389539  2.80071343134313  0.42056309390939
 1 -14.11076586038604  1.57673734793479 -0.68190221232123
 1  12.94410637443744 -2.06365887248725  1.57981986398640
 1  11.76808426292629 -3.01430512261226  0.39092594819482
 1 -12.03495328742874  3.72304002470247 -0.07766124912491
 1 -12.63258947284729  2.91209471727173 -1.42067596879688
 1  11.24990836133613 -0.72172524982498 -2.27847598029803
 1  12.03918079877988  0.77334199549955 -2.98678525252525
 1  10.55256282758276  0.83763687538754 -2.11134185368537
 1  12.76593754785478  2.10658756065607  0.58873621412141
 1  11.43308171507151  2.59978988988899 -0.48895305230523
 1  13.38110996729673  2.30110037993799 -1.05851812291229
 1 -13.57588681938194 -0.30878488748875 -0.67279338003800
 1 -13.54561673427343 -1.80308611281128  0.70260748144815
 1 -12.54331193439344 -2.01705010991099 -0.68374425692569
 1 -10.70111260216022 -0.01580722012201  2.72039169826983
 1 -10.84642116751675 -1.80599159985999  1.94561857805781
 1 -12.20265432943294 -0.91838630653065  2.73661218931893
 1  10.07882128872887  1.92583744384438  0.44181008890889
 1 -10.17107155185519 -1.57489259925993 -0.78828520652065
 1  9.73566764426443 -0.54811240594059  2.56501025862586
 1  10.67263807790779 -2.10120631853185  2.95917734773477
 1  9.34107617481748 -2.05171502150215  1.67054667626763
 1 -9.26511354665466  1.59673198579858 -1.74181667856786
 1 -9.49743454835483  3.16737025902590 -0.98955900210021
 1 -10.48087835283529  2.69595460086009 -2.48930890419042
 1  8.09911550235023 -0.59228000820082  0.40183323292329
 1 -8.38348174337434  0.62732692679268  0.28013436093609
 1  8.36508974107411  3.08290332623262  1.66073545604560
 1  6.72115399609961  3.27351505570557  0.96179875957596
 1  7.98156239393939  3.34071273327333 -0.09225244814481
 1 -8.57682863506351 -2.90951801090109 -1.38760545414541
 1 -8.47341833013301 -3.12714590189019 -0.01163502420242
 1 -7.08316286888689 -3.44962761406141 -0.88579746494649
 1  6.18828969346935 -0.45678090489049  0.12875085838584
 1 -6.11302328692869  0.23435537403740  0.01144086728673
 1  4.86291964926493  2.41113955805581  0.09052195899590
 1 -5.18889899019902 -2.60543405980598 -0.92670481158116
 1  3.92288255495550 -0.73364793469347  0.50893053145315
 1 -3.78446607780778 -0.05160883098310 -0.11722358905891
 1  2.56812751215122  3.26385678177818  1.19137779307931
 1  1.15806300710071  3.18537926972697  0.17528725622562
 1  2.91296835563556  3.16390686418642 -0.55920989058906
 1 -2.85230710031003 -3.63423177907791 -1.65912092289229
 1 -3.40709231503150 -3.80420241314131  0.08365301670167
 1 -1.44169514081408 -3.77438777317732 -0.42518474487449
 1  0.39939234003400  1.18799471467147  0.09404004920492
 1 -1.44711580018002  0.00258824602460 -0.04542226832683
 1  1.97841638613861 -1.59382843254325  0.10448088388839
 1  0.05744625542554 -2.70893593589359 -0.17652851375138

