%nproc=4
%Mem=2GB
# td=(NStates=1) B3LYP/6-31G(d,p) 

TD

0 1
 6  12.07485182778278  0.60235083558356 -0.64891101000100
 6 -12.12596491059106 -0.00878592019202  0.84563374227423
 6  13.34023343604360 -0.10471013101310 -0.57001300030003
 6 -13.06253275317532  1.25375976747675  1.22601331573157
 6  13.16615893009301 -1.67658333073307 -0.45543730253025
 6 -13.44105870197020  2.10929944204420  0.09580994809481
 6  11.05434722862286  0.16862112661266  0.44307184498450
 6 -10.99567723552355  0.46349623192319 -0.12886052085208
 6  12.25853029042904 -2.07163945794579  0.73819779607961
 6 -12.09380926352635  2.75459576777678 -0.34672300820082
 6  11.15229493749375 -1.10537259175918  0.93749031743174
 6 -10.92969776397640  1.76210183198320 -0.54454332803280
 6  11.46549713741374  0.45056618171817 -2.06144462306231
 6  12.41703511691169  2.15465952105211 -0.39060057905791
 6 -12.96949454025403 -1.06143326202620  0.13492732263226
 6 -11.48272714071407 -0.62126530013001  2.05588373657366
 6  9.81243930653065  0.92095820942094  0.52330433093309
 6 -9.85608541544154 -0.53063560566057 -0.26272035983598
 6  10.09849402570257 -1.73773358505851  1.86070870577058
 6 -9.66762973317332  2.25694743384338 -1.47003846874687
 6  8.47215345504550  0.42098205440544  0.23729193539354
 6 -8.59636259465947 -0.31302116741674 -0.27644396729673
 6  7.28857742594260  1.28052685298530  0.28262087468747
 6 -7.50181907580758 -1.28959743484348 -0.42480287718772
 6  7.60472352205221  2.76820945814581  0.58886132313231
 6 -7.82564975317532 -2.84641465256526 -0.62678995659566
 6  6.10941484298430  0.68995338433843  0.09221138013801
 6 -6.12601121102110 -0.98636945954595 -0.36528864056406
 6  4.84845549624962  1.39905223712371  0.39496915591559
 6 -4.95022463426343 -1.76301227902790 -0.40273165476548
 6  3.69394810641064  0.61101866706671  0.17907985728573
 6 -3.71764714991499 -1.20242087478748 -0.39388182588259
 6  2.38230153155316  1.20230093779378  0.18345283318332
 6 -2.47484648404840 -1.91181624032403 -0.43026630673067
 6  2.21665603720372  2.71138050455045  0.42792716601660
 6 -2.52843338873887 -3.43871739823982 -0.65695704580458
 6  1.21264281278128  0.41298263986399 -0.03969905290529
 6 -1.32633080618062 -1.17656622862286 -0.28460716581658
 6  1.09707407960796 -1.00518546574657 -0.20841836153615
 6  0.01300183978398 -1.72874911471147 -0.28612236823682
 1  14.06235634143414  0.20403283278328  0.24252229512951
 1  13.95670268406841  0.17178880318032 -1.61461499989999
 1 -12.48125449044904  1.89517190739074  1.84509807460746
 1 -13.70903176077608  0.64743423572357  1.84673111121112
 1  14.05740636263626 -2.43267408510851 -0.34862830863086
 1  12.72882876457646 -2.16423032303230 -1.51539766306631
 1 -14.18659204740474  2.81573493349335  0.50047108470847
 1 -13.84038882268227  1.55197487168717 -0.86769079117912
 1  13.06230819461946 -1.96497900450045  1.59655153715371
 1  12.02099955445544 -3.15660935303530  0.51417827342734
 1 -11.63443323542354  3.43612133283328  0.31933845084508
 1 -12.19501571547155  3.29613312111211 -1.27381128232823
 1  11.22120549104910 -0.67743082038204 -2.06731486418642
 1  12.15512239293929  0.71895655695570 -2.87171374537454
 1  10.69644721602160  1.02563567526753 -2.13717443694369
 1  12.82298325242524  2.19499640154015  0.72695003550355
 1  11.61839024592459  2.76995690659066 -0.71199535653565
 1  13.08798065436544  2.31010128002800 -1.26833910501050
 1 -13.44866409710971 -0.51921593059306 -0.68523462416242
 1 -13.76468864146415 -1.42640844504450  0.80295751645165
 1 -12.30372797599760 -1.89986839173917 -0.19355523802380
 1 -10.72025451635164  0.06910127072707  2.46273593269327
 1 -10.95345187058706 -1.56011701240124  1.76313032923292
 1 -12.35800986498650 -0.61308577647765  2.78162669076908
 1  9.94836824342434  1.92137699779978  0.99336524442444
 1 -10.19193363806381 -1.49776488648865 -0.58652503050305
 1  9.66181025852585 -0.90645824052405  2.40108386598660
 1  10.72181299539954 -2.13115931383138  2.49942137213721
 1  9.39785185238524 -2.37173702370237  1.53974359595960
 1 -8.95522255755576  1.30704301690169 -1.61309380628063
 1 -9.24908971387139  2.94977849984999 -0.93729377557756
 1 -10.00046031103110  2.74034904030403 -2.40449042234223
 1  8.28813440424042 -0.58692947314731 -0.15654260466047
 1 -8.31964535973597  0.58188238233823  0.14570091759176
 1  8.25873910601060  2.98384342024202  1.31040042254225
 1  6.63662554325433  3.19797750195019  0.89380195989599
 1  8.08222245994600  3.33553221522152 -0.33478670157016
 1 -8.51190214241424 -2.80910796989699 -1.47063375697570
 1 -8.59842083038304 -3.41938512581258  0.30063620292029
 1 -7.13549810241024 -3.62178482978298 -0.91830071527153
 1  6.08744960946095 -0.31854708150815 -0.03521553825382
 1 -5.94501648624862  0.10984292279228 -0.62379265606561
 1  4.98077143444344  2.56096454055406  0.66658956575658
 1 -5.11171127142714 -2.98195171157116 -0.27019916101610
 1  3.77527779447945 -0.47348191809181  0.03838347674768
 1 -3.80670830203020 -0.05039870997100 -0.32390425712571
 1  2.85058575797580  2.83226362246225  1.31175983128313
 1  1.27442464326433  2.97486821862186  0.69452918041804
 1  2.73534059285929  3.24072454595460 -0.37102107170717
 1 -2.99012088168817 -3.86213456935694 -1.54595960676068
 1 -3.15265687148715 -3.96503849674968  0.14838949034904
 1 -1.49795076637664 -3.91737207160716 -0.44638686508651
 1  0.33948634943494  0.78943485868587  0.20461110631063
 1 -1.52003309190919  0.00256824402440 -0.38769649574958
 1  2.00217876237624 -1.55891494119412 -0.17171673587359
 1 -0.03624311351135 -2.79269431173117 -0.26320718161816

