%nproc=4
%Mem=2GB
# td=(NStates=1) B3LYP/6-31G(d,p) 

TD

0 1
 6  12.14684902750275  0.57930853135314 -0.73609972887289
 6 -12.20288260236024 -0.01665670727073  0.81250042894289
 6  13.31701111381138 -0.28745840584058 -0.70973697269727
 6 -13.04777127702770  1.18481287278728  1.11239195359536
 6  13.11611392559256 -1.78093376577658 -0.73243500230023
 6 -13.42403699979998  2.11223973607361 -0.05233486638664
 6  11.03470526442644 -0.03436917241724  0.15815335313531
 6 -11.01955962376238  0.42320220252025 -0.17499513431343
 6  12.21699613701370 -2.23167546154615  0.47545152145215
 6 -12.05625550815081  2.65153546174617 -0.64868320422042
 6  11.12576228422842 -1.27015907040704  0.68273484188419
 6 -11.09210400460046  1.60784640644064 -0.91379025272527
 6  11.68490907860786  0.69961108620862 -2.16323480208021
 6  12.60451386478648  2.06963101820182 -0.29422094109411
 6 -12.88894648544854 -1.22763988268827  0.26120995089509
 6 -11.48619748774878 -0.50536370997100  2.07934608280828
 6  9.86406446904691  0.90617673127313  0.39472147264726
 6 -9.92738254515452 -0.59017155925593 -0.34671875967597
 6  10.05427960426043 -1.81321113281328  1.60050268516852
 6 -10.05600857105711  1.97069880898090 -1.97031849674968
 6  8.48053429312931  0.54533448964896  0.24401260746075
 6 -8.56540949934993 -0.32539240454045 -0.26746306920692
 6  7.41265983418342  1.37466626692669  0.55745835843584
 6 -7.54069296319632 -1.24200267536754 -0.38386878377838
 6  7.55817886758676  2.77220985818582  0.79724216121612
 6 -7.88442563076308 -2.74998500960096 -0.47925520312031
 6  6.22629653115312  0.73449783878388  0.38047020602060
 6 -6.17055566546655 -0.82486330893089 -0.21100321202120
 6  4.89619026972697  1.25108744064406  0.51254091309131
 6 -4.98685829762976 -1.66098207600760 -0.32096347794779
 6  3.65631434303430  0.68904646984698  0.27575952525253
 6 -3.65143052825283 -1.09351998469847 -0.24459689738974
 6  2.35505880728073  1.29476018371837  0.38649313721372
 6 -2.46800579998000 -1.76618167686769 -0.33443672377238
 6  2.24085845744574  2.68386775327533  0.70638501180118
 6 -2.50358090349035 -3.28003152965297 -0.58653000310031
 6  1.21607315581558  0.47756909850985  0.28090300730073
 6 -1.29722789588959 -1.13608218021802 -0.11665037013701
 6  1.12053642584258 -0.91684663186319  0.11470395069507
 6 -0.05396485688569 -1.67435367516752  0.00009625362536
 1  14.03558366416642 -0.10098766926693  0.21006904980498
 1  14.12865987978798 -0.07861623732373 -1.56211975037504
 1 -12.60804716971697  1.83582597279728  1.85769933473347
 1 -13.95104596219622  0.93598309060906  1.74316075417542
 1  14.01837245924593 -2.45417623532353 -0.86961040684068
 1  12.30410629232923 -2.04075797579758 -1.64213033633363
 1 -14.01322471067107  2.95213857385739  0.34752579017902
 1 -13.84243902770277  1.33354302850285 -0.84124814691469
 1  12.73732569636964 -2.36005851245125  1.40852273427343
 1  11.62436989148915 -3.18899259135914  0.12226908250825
 1 -11.66786657875788  3.43109082978298  0.08996551355136
 1 -12.35800201410141  3.05564907270727 -1.64109801100110
 1  11.70125349584958 -0.13930700800080 -2.70306843954396
 1  12.38646552725272  1.64880954225423 -2.59485605960596
 1  10.60878845014501  1.11369448114811 -2.35716643614361
 1  13.03137409150915  2.22489939183918  0.65496283678368
 1  11.94671307820782  2.95058496939694 -0.51585574257426
 1  13.51632348864887  2.18993926382638 -1.00617288838884
 1 -13.31128035873587 -1.23203721272127 -0.84329042974297
 1 -13.67187936053605 -1.48803460766077  0.93892111281128
 1 -12.21873947714771 -2.23318172307231  0.32373649114912
 1 -11.06151864276428  0.43435779637964  2.53739339843984
 1 -10.83296982238224 -1.39121012171217  1.74998901510151
 1 -12.26748081208121 -0.99872434033403  2.72024055215521
 1  10.08471187778778  1.90733559365937  0.84064997289729
 1 -10.10699514421442 -1.75080019001900 -0.34772115011501
 1  9.46136021352135 -0.91884947964796  1.99502325992599
 1  10.47037785188519 -2.28581477937794  2.44783621362136
 1  9.47793986118612 -2.50477032703270  0.88826844844485
 1 -9.43932096739674  1.01441375397540 -2.10955345224522
 1 -9.54770957585758  2.74554807680768 -1.81887193339334
 1 -10.77075734073408  2.21296630203020 -3.09342931623162
 1  8.38669426022602 -0.30980176037604 -0.00866781718172
 1 -8.34864826002600  0.60884507860786 -0.03631728422842
 1  8.29765299739974  3.02570760666067  1.52586196869687
 1  6.58936081678168  3.43381108530853  1.00779335903590
 1  7.89463370107011  3.39083774577458 -0.24754797769777
 1 -8.45607655985599 -2.77133419251925 -1.45464215781578
 1 -8.75750673897390 -2.91793498079808  0.20210634993499
 1 -7.03532808540854 -3.37880053135314 -0.43622250745074
 1  6.23144400890089 -0.44735996279628  0.21914989828983
 1 -5.94612659725972  0.24916685518552 -0.09983025982598
 1  4.91163452075207  2.43089153325333  0.80010291709171
 1 -5.22001210151015 -2.68668218461846 -0.49988212931293
 1  3.71419168586859 -0.28252282218222  0.00997063546355
 1 -3.42793042424242 -0.08029169926993  0.01754988828883
 1  2.70792149154915  3.20260065616562  1.65909456475648
 1  1.23812101290129  2.89436016781678  0.80701042854286
 1  2.77445450425042  3.38977945144514 -0.12390636023602
 1 -3.17374924452445 -3.50220857675768 -1.57200221102110
 1 -2.94965657145715 -3.83386537943794  0.06820147154716
 1 -1.49535050635064 -3.85232556695670 -0.69040126652665
 1  0.20540294109411  0.88598451365137  0.29028967416742
 1 -1.41734282288229 -0.11267328012801  0.28707098099810
 1  2.07281582608261 -1.26472552225223  0.02478291409141
 1  0.20619112991299 -2.76219126142614 -0.07803866476648

