%nproc=4
%Mem=2GB
# td=(NStates=1) B3LYP/6-31G(d,p) 

TD

0 1
 6  12.11110545314531  0.47737833833383 -0.74641075997600
 6 -12.19170148424842 -0.08699374097410  0.87694687358736
 6  13.47112652535254 -0.26652631263126 -0.58040403940394
 6 -13.05721222112211  1.09118350985099  1.23449416381638
 6  13.20762307650765 -1.79541521392139 -0.50513227202720
 6 -13.53715831193119  2.04985349744975  0.10101046814681
 6  11.15119691359136  0.03204746924692  0.26725426322632
 6 -11.01855952375237  0.43445332763276 -0.02829046384638
 6  12.41941637903790 -2.07031932593259  0.78821279757976
 6 -12.21666154875487  2.59561987018702 -0.44284262016202
 6  11.20524023202320 -1.16709876437644  0.98147471587159
 6 -11.07731252545254  1.64760038183818 -0.75503437713771
 6  11.57707829552955  0.40425155025503 -2.17725620422042
 6  12.55095850925093  1.98860291539154 -0.41017253625363
 6 -13.14584217501750 -1.18518563726373  0.19860369026903
 6 -11.45776464446445 -0.76978015161516  2.15026317451745
 6  9.81357942054206  0.82801891549155  0.40239223972397
 6 -9.89056886378638 -0.58455099719972 -0.25622971077108
 6  10.32951712801280 -1.62137194889489  2.10671330623062
 6 -10.01332430263026  2.20981272037204 -1.59571103600360
 6  8.57575381508151  0.48031798799880  0.23038124432443
 6 -8.57707066546655 -0.18962882818282 -0.21387771067107
 6  7.41306987518752  1.37024582488249  0.32753536613661
 6 -7.49708860276028 -1.18303677877788 -0.52070246714671
 6  7.66050910061006  2.90618325552555  0.46664910191019
 6 -7.86641382958296 -2.69900991209121 -0.72017929552955
 6  6.20972487398740  0.72594698369837  0.28107026602660
 6 -6.20241885178518 -0.72355317791779 -0.41708382008201
 6  4.91923257395740  1.44540687258726  0.34023368236824
 6 -5.03101271307131 -1.53343932173217 -0.54102548414842
 6  3.74590330193019  0.71554912011201  0.25954790409041
 6 -3.74758014321432 -1.18538917161716 -0.46108854655466
 6  2.39239254065407  1.22760346804680  0.33894838273827
 6 -2.60738973837384 -1.87332239093909 -0.48452173227323
 6  2.22912728432843  2.64685405190519  0.61866623992399
 6 -2.53498404380438 -3.34523805030503 -0.64998634873487
 6  1.30309185768577  0.44771611321132  0.18880379737974
 6 -1.39965813891389 -1.06529510151015 -0.26864556965697
 6  1.07899227142714 -0.92176712391239 -0.13782130183018
 6 -0.02076153655366 -1.60939717951795 -0.36041979797980
 1  14.08634874067407 -0.09003657415742  0.30488853175318
 1  14.14989200300030 -0.06141451715171 -1.53643718211821
 1 -12.43502986798680  1.78999138933893  1.97954151895190
 1 -13.85541639923992  0.72184167646765  1.92717915601560
 1  14.18676929892989 -2.36060687838784 -0.62470591639164
 1  12.64511039273927 -2.02504640464046 -1.33292941624162
 1 -14.30291367956796  2.86408976897690  0.44696573417342
 1 -14.15045982978298  1.48119779397940 -0.63099712181218
 1  13.02500446424643 -2.08312081868187  1.81498338033803
 1  12.08173562806281 -3.20187387948795  0.80687754335434
 1 -12.03001279337934  3.38668638933893  0.23459997699770
 1 -12.39575578947895  3.34538804660466 -1.38031193239324
 1  11.17031040154015 -0.61370444774477 -2.45440357305731
 1  12.47111399209921  0.74842950425042 -2.92178875287529
 1  10.79478705000500  1.21086419811981 -2.41324204370437
 1  12.60547150125013  1.84972187408741  0.65429276977698
 1  11.81156956385639  2.70946085698570 -0.85503966096610
 1  13.56050790709071  2.18170844074407 -1.01095336643664
 1 -13.50306953765377 -0.84917892689269 -0.78830493119312
 1 -13.88104027662766 -1.53093889808981  1.03425064576458
 1 -12.43914151735174 -2.22976138103810 -0.00722660516052
 1 -10.83756624752475 -0.14492013141314  2.61676133523352
 1 -10.87271379677968 -1.57492849354935  1.82050606680668
 1 -11.95503956795680 -0.97955242314231  2.98612714081408
 1  9.85548895549555  1.90670553065307  0.54525043294329
 1 -10.19647409210921 -1.60275538553855 -0.45180155815582
 1  9.71675575307531 -0.62237983268327  2.35927968556856
 1  10.84037485158516 -1.96636283418342  3.13440487048705
 1  9.64891695889589 -2.33412326232623  1.80553017461746
 1 -9.67302433773377  1.37245955855586 -2.15021751865187
 1 -9.37425223012301  2.81684520652065 -0.99247929412941
 1 -10.76990725572557  2.71518652405240 -2.31403137643764
 1  8.30071566236624 -0.58016879707971  0.03389643924392
 1 -8.31083447864786  0.83530772487249  0.09789613711371
 1  8.09717294939494  2.92505754165417  1.39988937143714
 1  6.71049292999300  3.51961966616662  0.26752933263326
 1  8.33221745944594  3.15040370237024 -0.28995221812181
 1 -8.59436038823882 -2.75561262036204 -1.42153884748475
 1 -8.37070805910591 -3.18707189448945  0.11056719601960
 1 -7.09043359595960 -3.33081573287329 -1.14385327052705
 1  6.14302516701670 -0.46343156995700  0.46924490779078
 1 -6.16881886648665  0.25319725822582 -0.17295757255726
 1  5.01505486278628  2.46411485558556  0.54021692849285
 1 -5.36833693399340 -2.57827134353435 -0.60339248034804
 1  3.72799306600660 -0.31559612951295  0.17215685408541
 1 -3.59514714591459 -0.12746641674167 -0.14921678837884
 1  2.81073177257726  3.02330272637264  1.57879653495350
 1  1.20821802260226  2.90916164796480  0.46679640714071
 1  2.76097315611561  3.11682215571557 -0.12726669626963
 1 -3.22692456205621 -3.42108046394639 -1.50667567836784
 1 -3.18278988478848 -3.90089208210821  0.02691734313431
 1 -1.40437140844084 -3.93182351675167 -0.64444667106711
 1  0.39246164696470  0.97838375357536  0.45828647384738
 1 -1.34710579917992 -0.02283429622962 -0.10205793189319
 1  2.03570211471147 -1.52752180188019 -0.06098566276628
 1  0.19035954675468 -2.55033007530753 -0.40369123002300

