%nproc=4
%Mem=2GB
# td=(NStates=1) B3LYP/6-31G(d,p) 

TD

0 1
 6  12.12758710131013  0.59370997149715 -0.81166728562856
 6 -12.08222053615362  0.09001395979598  0.84713389228923
 6  13.37758717141714 -0.27320698069807 -0.78882488148815
 6 -13.03738023792379  1.22789718121812  1.21226194059406
 6  13.08689100330033 -1.67726339873987 -0.70256201500150
 6 -13.37044164026403  2.10384889698970 -0.10571020392039
 6  11.07389918381838  0.07819208370837  0.25809334713471
 6 -11.03335100290029  0.44909479177918 -0.19638727352735
 6  12.35007944534453 -1.99266156015602  0.51474545084508
 6 -12.10764064666467  2.68964927312731 -0.55439377527753
 6  11.19843955195519 -1.10466252075208  0.83288985738574
 6 -11.00524531873187  1.62147776957696 -0.80795966966697
 6  11.48571915961596  0.57757888298830 -2.24903338193819
 6  12.47596100950095  2.05108916401640 -0.44219573857386
 6 -12.96557414821482 -1.04866198489849  0.21720555045505
 6 -11.45494436243624 -0.58112128572857  2.10988913711371
 6  9.88820688328833  0.90756687028703  0.44755675617562
 6 -9.91670147704770 -0.49780232233223 -0.43312740054005
 6  10.31391556785679 -1.50206001770177  1.95403803870387
 6 -9.94082705290529  2.27557929702970 -1.70117158205821
 6  8.61990823052305  0.50838079427943  0.38176638283828
 6 -8.66113907230723 -0.34214407970797 -0.25685200810081
 6  7.47056562476248  1.33923272357236  0.50846345894589
 6 -7.53358225212521 -1.33298177327733 -0.37602799969997
 6  7.58829187888789  2.79747238443844  0.76538897589759
 6 -8.03129031723172 -2.75113512461246 -0.66351362896290
 6  6.20311421292129  0.68579296829683  0.35378753775378
 6 -6.25675428532853 -1.06741756435644 -0.31735384708471
 6  4.89215986668667  1.32231456335634  0.44028368736874
 6 -5.03498311011101 -1.74400037783778 -0.46918830043004
 6  3.72321103270327  0.59303686888689  0.40951290059006
 6 -3.74474986018602 -1.20220085278528 -0.31166360406041
 6  2.42262556395640  1.08438914661466  0.54628911681168
 6 -2.54273327272727 -1.90144520322032 -0.37122040214021
 6  2.16388075967597  2.55590495699570  0.65556993029303
 6 -2.64247479287929 -3.46847037353735 -0.51572292239224
 6  1.25646719521952  0.40379172077208  0.29173409040904
 6 -1.40880905400540 -1.16423499549955 -0.28065677077708
 6  1.09458383058306 -0.96566151335134 -0.05425294499450
 6 -0.07644710511051 -1.69662590239024 -0.19733348934893
 1  14.18424853065306 -0.07242481298130 -0.04011596869687
 1  14.11826884068407 -0.03792216791679 -1.68451198959896
 1 -12.49664602960296  1.87712010221022  2.01411497629763
 1 -13.79995085268527  0.74888438073807  1.71875831393139
 1  13.85819644164417 -2.35053587128713 -0.95250869666967
 1  12.48801468316832 -2.10948484848485 -1.61181730503050
 1 -14.16348973717372  2.79680304030403  0.18176921452145
 1 -13.75911069486949  1.58468814301430 -1.17151117321732
 1  12.90402236603660 -2.10725323192319  1.64371625362536
 1  12.23694114861486 -3.10065375747575  0.43619047464746
 1 -11.76452624472447  3.62172989368937 -0.14949843284328
 1 -12.47038325222522  3.24812832063206 -1.38420232143214
 1  11.52125549604960 -0.47807088438844 -2.68200633333333
 1  12.07657453815382  1.19826448774878 -2.91364793879388
 1  10.48506607790779  0.93498661036104 -2.14224494399440
 1  12.78779973407341  2.20085698759876  0.48003534403440
 1  11.77566597349735  2.83092300320032 -0.76493065006501
 1  13.33291514781478  2.29853012291229 -1.21499377047705
 1 -13.71582081278128 -0.68081209020902 -0.54421052175218
 1 -13.74392656525653 -1.44249005320532  1.00954817551755
 1 -12.28504610781078 -1.77882628752875 -0.13798968146815
 1 -10.73571606250625 -0.04698033743374  2.77218687778778
 1 -10.84005053045304 -1.48538953965396  1.79144316051605
 1 -12.19323338733873 -0.79082355025503  2.68501702980298
 1  10.16684009060906  1.90623548364836  0.47056296419642
 1 -10.25700014471447 -1.56776188618862 -0.41150752875288
 1  9.76426050355036 -0.62592018671867  2.42107586518652
 1  10.84741555565557 -1.99270546844685  2.81871330133013
 1  9.78487055425543 -2.36145599559956  1.77248687028703
 1 -9.07742477777778  1.57361967456746 -2.11959445634563
 1 -9.34986979187919  3.17662118411841 -1.30656070227023
 1 -10.37144740974098  2.83910891629163 -2.63749372267227
 1  8.51157674847485 -0.51773255345535  0.12247529712971
 1 -8.33901729692969  0.58197239133913 -0.01583523602360
 1  8.12608584068407  2.83570860676068  1.77783716621662
 1  6.72729461016102  3.41140884508451  0.75482806250625
 1  8.39112335003500  3.17794645664566 -0.00702392529253
 1 -8.70191114331433 -2.88965602470247 -1.52411910551055
 1 -8.61696268456846 -3.24758794609461  0.17477361666167
 1 -7.16292084468447 -3.42895554685469 -0.64110299549955
 1  6.22957382188219 -0.41562678947895  0.12000998429843
 1 -6.11307329192919  0.14273621212121 -0.33122339913991
 1  4.77893125042504  2.24189263336334  0.78789169596960
 1 -5.11344144444444 -2.77055057145715 -0.47279942104210
 1  3.94709497619762 -0.47088165806581  0.16383602200220
 1 -3.66096372757276 -0.10665433553355 -0.21423329002900
 1  2.67713841324132  3.14292468856886  1.57265592089209
 1  1.16772397319732  2.78874960676068  0.71007073457346
 1  2.82109916871687  3.12186265976598 -0.14191816141614
 1 -2.75061693129313 -3.98875723162316 -1.45808081888189
 1 -3.45812741854185 -3.75643763666367  0.25847049844984
 1 -1.58555952725272 -3.95607594199420 -0.11168339473947
 1  0.41702410321032  1.05964187938794  0.32877352255226
 1 -1.67173826242624 -0.02439445224522 -0.06345407150715
 1  1.88190673517352 -1.59152820252025 -0.15455501970197
 1  0.15397590839084 -2.66555159745975 -0.52327318821882

