%nproc=4
%Mem=2GB
# td=(NStates=1) B3LYP/6-31G(d,p) 

TD

0 1
 6  12.20723506610661  0.60472107260726 -0.57940405930593
 6 -12.10413272737274 -0.02906794839484  0.92538171707171
 6  13.38086749944995 -0.27567722772277 -0.38417441644164
 6 -12.80868736863686  1.25379977147715  1.39683039743974
 6  13.12238455265527 -1.79684535693569 -0.36931869066907
 6 -13.23507810391039  2.31905041714171  0.37346771387139
 6  10.93448524242424  0.01369563406341  0.25511304910491
 6 -10.93400106790679  0.44152403470347 -0.06449408420842
 6  12.21702614001400 -2.13256555055506  0.79104308060806
 6 -11.97355723832383  2.75972628082808 -0.35567390329033
 6  11.05403511151115 -1.15771782628263  0.90115668406841
 6 -10.92983777797780  1.69819544134413 -0.67780665436544
 6  11.66851743944395  0.60455158025803 -2.07301578017802
 6  12.53449686308631  2.02502655775578 -0.10150166916692
 6 -12.99732732353235 -1.01097821652165  0.17056088598860
 6 -11.45719458745875 -0.70791396499650  2.19608775697570
 6  9.76149421202120  0.99305541914191  0.29676167666767
 6 -9.83793360026002 -0.60587312941294 -0.26331041884188
 6  9.98145232153215 -1.65695550725073  1.89758239313931
 6 -9.97664063426343  2.16376811591159 -1.73130459535954
 6  8.45759199889989  0.57083703990399  0.03766197239724
 6 -8.46531949034904 -0.37260712601260 -0.22338866176618
 6  7.27029559775978  1.37461626192619  0.16787940054005
 6 -7.40088898279828 -1.35825430053005 -0.47854825172517
 6  7.61623467316732  2.88823146034603  0.48212064906491
 6 -7.80155734393439 -2.82399241034103 -0.78997627522752
 6  6.13875777727773  0.80628501750175  0.07133929292929
 6 -6.11030964086409 -0.98142896549655 -0.46026813851385
 6  4.77681833253325  1.38629096099610  0.20960061906191
 6 -5.00543015481548 -1.80344632243224 -0.51587296889689
 6  3.61436014761476  0.72692025722572  0.21690363966397
 6 -3.71708709390939 -1.25275590829083 -0.40286272397240
 6  2.28063136453645  1.28909961766177  0.24288877677768
 6 -2.61330032943294 -2.05923098179818 -0.36249953005301
 6  2.15420979257926  2.84664403090309  0.30327470077008
 6 -2.51538208360836 -3.52422594909491 -0.82971432153215
 6  1.20448199669967  0.45398674027403  0.21323624062406
 6 -1.36967514061406 -1.30034860686069 -0.10743944904490
 6  1.13238761096110 -1.04198914611461 -0.19734725442544
 6 -0.03448290869087 -1.76630287008701 -0.28147190319032
 1  13.77669777557756  0.31332376187619  0.63708175107511
 1  13.98193520732073 -0.03054142984298 -1.11812535093509
 1 -12.26135250025002  1.68877126732673  2.06627019181918
 1 -13.80747160476048  1.09949944224422  1.96528296639664
 1  14.08724934693469 -2.29382019971997 -0.54149759555956
 1  12.52891877357736 -2.15551945194520 -1.09870599389939
 1 -13.72792618081808  3.21863522352235  0.68916995459546
 1 -13.80048483228323  1.90653032723272 -0.55517954005401
 1  12.72514447824783 -2.40423292989299  1.87529941194119
 1  11.73314076857686 -3.07686137823782  0.63476033163316
 1 -11.54410420252025  3.55253297399740  0.32091860886089
 1 -12.06479269316932  3.21266477427743 -1.31458535973597
 1  11.49334270477048 -0.40608368566857 -2.42420055275528
 1  12.54136101680168  0.88064272557256 -2.61565813981398
 1  10.73381095239524  1.35069818151815 -2.28445916541654
 1  12.68969992409241  1.88471537343734  1.01868920942094
 1  11.63131153805380  2.82463237413741 -0.20146430343034
 1  13.47701955825583  2.27888815871587 -0.54953722482248
 1 -13.40497972867287 -0.72165617461746 -0.78053415411541
 1 -13.73870604320432 -1.49113491769177  0.70467768846885
 1 -12.47087469066907 -1.85442384728473 -0.04568045054505
 1 -10.88755124602460  0.05020938153815  2.61182084118412
 1 -10.83608013341334 -1.53737473817382  2.03243725992599
 1 -12.34061812581258 -1.15724019191919  2.80031855995600
 1  9.81167457405741  2.08514337443744  0.68846475437544
 1 -9.95841028572857 -1.64313942394239 -0.29836621462146
 1  9.32984706220622 -0.89291688638864  2.21886564416442
 1  10.53779459355936 -2.22271846974698  2.82117354735474
 1  9.33637570477048 -2.52984283428343  1.33160278187819
 1 -9.02851988728873  1.29567187978798 -1.87240973787379
 1 -9.48270307520752  3.16346986898690 -1.38600864706471
 1 -10.64842510751075  2.36445145054505 -2.54659463276328
 1  8.52533812461246 -0.60664144434443 -0.14479142954295
 1 -7.92857625282528  0.60640483458346 -0.15839949244925
 1  7.88643187528753  2.91749678557856  1.63897327982798
 1  6.66993887458746  3.57696540074007  0.44930751045104
 1  8.37295153285329  3.33518218021802 -0.24970819371937
 1 -8.48360931313131 -2.81185824492449 -1.56746343994399
 1 -8.46012700100010 -3.15081826912691  0.01736787608761
 1 -7.12610716331633 -3.52249490079008 -1.01131001620162
 1  6.07012787728773 -0.16878210501050  0.02817080038004
 1 -5.97760974557456  0.08871080958096 -0.29799007580758
 1  4.77547090439044  2.50277872197220  0.40156306310631
 1 -5.16329642994299 -2.83466698309831 -0.66335847694770
 1  3.63296356305631 -0.23559812971297  0.36752639103910
 1 -3.66341397259726 -0.26807047714771 -0.35670753745375
 1  2.65272597199720  3.31191158725873  1.07968662396240
 1  1.07876507730773  3.18643937573757  0.36912664016402
 1  2.38198525732573  3.35464593809381 -0.77435140474047
 1 -3.22378424802480 -3.35273362926293 -1.67914292509251
 1 -2.98576018181818 -4.14366635953595 -0.09771512011201
 1 -1.52268323962396 -3.83724405880588 -1.11796402280228
 1  0.32187458825883  0.99228514371437  0.34483512871287
 1 -1.65637672627263 -0.31223323612361  0.17035930983098
 1  2.18501704620462 -1.65148419811981 -0.23808337253725
 1 -0.11389087828783 -2.88043308560856 -0.45610647154716

