%nproc=4
%Mem=2GB
# td=(NStates=1) B3LYP/6-31G(d,p) 

TD

0 1
 6  12.17813215581558  0.39767036753675 -0.63744986388639
 6 -12.13751606570657 -0.19374441604160  1.02750192909291
 6  13.53445285798580 -0.45759541954195 -0.41312731173117
 6 -13.03588008790879  1.09084347584758  1.49725043944394
 6  13.16788910311031 -1.99064473687369 -0.39985174397440
 6 -13.48177277337734  1.86190470257026  0.22557292439244
 6  11.07986978087809 -0.03330906640664  0.32051958975898
 6 -11.02537020482048  0.37284716701670  0.04351671687169
 6  12.16075051245124 -2.30539283328333  0.87736171247125
 6 -12.27700758335834  2.43690399859986 -0.56174451035104
 6  11.05365507350735 -1.26604865936594  0.94451101950195
 6 -11.18772356655665  1.48353397519752 -0.78311718541854
 6  11.80109069676968  0.37927905300530 -2.08538701730173
 6  12.62619603300330  1.76626068116812 -0.14688620762076
 6 -12.93134072487249 -1.30961808050805  0.37654148404840
 6 -11.42837170517052 -0.74985815941594  2.31911005920592
 6  9.91297936053605  0.78065417901790  0.39164116461646
 6 -9.94898470537054 -0.56321886398640 -0.24286837463746
 6  10.03998817511751 -1.62167197889789  2.06104873977398
 6 -10.11688465866587  1.89378111721172 -1.72919438433843
 6  8.50163640334033  0.45719567576758  0.11517972417242
 6 -8.56848980738074 -0.28063792909291 -0.26516283918392
 6  7.38225679387939  1.36409520982098  0.25857847044704
 6 -7.52215110901090 -1.24394286938694 -0.46955735263526
 6  7.77332038173817  2.80177281448145  0.51536397339734
 6 -7.83696088428843 -2.73863387448745 -0.74507178477848
 6  6.15292919441944  0.87080146914691  0.10311247024702
 6 -6.20748935883588 -0.78331915451545 -0.38582069376938
 6  4.89753040374037  1.48597092899290  0.30462012101210
 6 -5.02726233803380 -1.56525250305031 -0.41439282088209
 6  3.64125283688369  0.92257982318232  0.08908085738574
 6 -3.75811119631963 -0.92095272797280 -0.41686412411241
 6  2.39799310071007  1.44500520822082  0.22758724662466
 6 -2.44217321672167 -1.54239929862986 -0.59378265836584
 6  2.25631000260026  2.88318768526853  0.51643601690169
 6 -2.48262880828083 -3.13210673717372 -0.86981833193319
 6  1.26799834833483  0.72875421702170  0.04955987298730
 6 -1.34226239933993 -0.86636520852085 -0.42616132123212
 6  1.17201157335734 -0.68186313351335 -0.32699021872187
 6 -0.01478093849385 -1.34349058885889 -0.54048780478048
 1  14.18466857265727 -0.14948251875188  0.32862090499050
 1  14.02160917471747 -0.48909728542854 -1.21745528392839
 1 -12.34254061906191  1.49447183738374  2.22611617641764
 1 -13.93408426602660  0.65273476577658  2.09966640474047
 1  14.04604522652265 -2.52249306700670 -0.34052749854986
 1  12.57032291399140 -2.30978487848785 -1.27694381768177
 1 -14.42001538973897  2.65607896789679  0.44975601320132
 1 -13.91090587438744  0.97132680688069 -0.51944596669667
 1  12.99145110891089 -2.28857136373637  1.76522840484048
 1  11.83536099059906 -3.32568626072607  0.85116197179718
 1 -11.78461825392539  3.06650437113711  0.03123964096410
 1 -12.64589080298030  2.83970747854785 -1.44636853805381
 1  11.67250062056206 -0.60175325262526 -2.48491662436244
 1  12.69673655435544  0.74595925722572 -2.49118569256926
 1  10.92303987528753  0.99664277597760 -2.15983670317032
 1  12.77029798389839  1.92259916181618  1.03744108460846
 1  11.82673108000800  2.58255816671667 -0.33141729872987
 1  13.40905276157616  2.25361563146315 -0.78107037813781
 1 -13.30493972467247 -0.86050005900590 -0.65461156185619
 1 -13.87950012261226 -1.66333213741374  0.82389961066107
 1 -12.21629923312331 -2.17533593849385  0.04682880038004
 1 -10.76938942984298  0.05091945254525  2.95847550665066
 1 -10.91575810121012 -1.63594459515952  1.94709872607261
 1 -12.20501456545655 -1.15392986088609  3.01290981908191
 1  9.99831323792379  1.92495735583558  0.54332023992399
 1 -10.32920736543654 -1.51125623562356 -0.13438981698170
 1  9.26634071157116 -0.84331192589259  2.16970072767277
 1  10.51184199829983 -2.06253245114511  2.99419084908491
 1  9.36483855105511 -2.36767661766177  1.38522814441444
 1 -9.51855889118912  1.10122243484348 -2.16577907480748
 1 -9.46418122302230  2.68494201620162 -1.40813085928593
 1 -10.59612987798780  2.49083408880888 -2.60732070537054
 1  8.42046763756376 -0.53000378057806 -0.03077002740274
 1 -8.21100449564956  0.73771796589659 -0.17914156665667
 1  8.03529676177618  2.96074111001100  1.57796717921792
 1  6.90093197389739  3.55150285448545  0.20901348104811
 1  8.41366560426043  2.96668533053305 -0.21844506740674
 1 -8.46065701790179 -2.82599965906591 -1.60766746034603
 1 -8.30147113541354 -3.21109429672967  0.21543768306831
 1 -6.96425097769777 -2.98413106440644 -0.96644552975297
 1  6.10854171867187 -0.19618484528453 -0.09126114281428
 1 -6.17678966356636  0.24541648014801 -0.06357663446345
 1  4.87418077537754  2.49648809290929  0.22658556535654
 1 -5.02407250755075 -2.73614713111311 -0.44897703880388
 1  3.71865213191319 -0.05508007790779 -0.25874623622362
 1 -3.91196882808281  0.30883721362136 -0.22194406110611
 1  2.75799649904991  2.97301769786979  1.60823947924792
 1  1.31292849364936  3.64045477727773  0.54729445694569
 1  2.77551461026103  3.49717019051905 -0.15672964256426
 1 -2.84995686528653 -3.36071442734273 -1.80091510231023
 1 -2.98444004980498 -3.60849284218422  0.01669632103210
 1 -1.54706567786779 -3.65941627602760 -0.76257848424843
 1  0.34613701450145  1.20149606480648  0.10293093829383
 1 -1.54747583618362  0.00362835003500 -0.42327005310531
 1  2.10287883238324 -1.24252330203020 -0.31395095929593
 1 -0.05281477067707 -2.36387142944294 -0.65287614851485

