%nproc=4
%Mem=2GB
# td=(NStates=1) B3LYP/6-31G(d,p) 

TD

0 1
 6  12.08376271887189  0.56633723422342 -0.68671479037904
 6 -12.00611292539254  0.05620057845785  0.88520769966997
 6  13.45187460016002 -0.21809146914691 -0.47499349834984
 6 -12.95186168606861  1.12451684318432  1.55634634903490
 6  13.21003331753175 -1.71870754315432 -0.36703846264626
 6 -13.31460605670567  2.14650316241624  0.35010537763776
 6  10.98091988588859  0.06557082158216  0.28878641644164
 6 -10.89769743754375  0.44975485778578 -0.07572520732073
 6  12.32879731713171 -2.06410870487049  0.83167714401440
 6 -12.15987587018702  2.75161546974697 -0.37204554045405
 6  11.11955166316632 -1.12052410691069  0.99297586598660
 6 -11.00457525172517  1.67217283908391 -0.66354522822282
 6  11.57032762046205  0.41192231733173 -2.06843532213221
 6  12.47732114551455  2.00206426152615 -0.52396391539154
 6 -12.91186877767777 -1.03076019471947  0.28651248114811
 6 -11.35556442444244 -0.70437361096110  2.18187633583358
 6  9.85987405000500  0.87625373897390  0.42309430993099
 6 -9.81515132203220 -0.51534407650765 -0.39135322312231
 6  10.18751292759276 -1.53678349004900  2.07547018191819
 6 -9.99427239743975  2.30341208030803 -1.70451191609161
 6  8.49289552925292  0.51372132833283  0.19014722092209
 6 -8.48397135553555 -0.29171903720372 -0.46295261816182
 6  7.30166873507351  1.38275707600760  0.43513612621262
 6 -7.42826172007201 -1.36417489258926 -0.51041143804380
 6  7.46738978867887  2.73499613681368  0.60713315031503
 6 -7.91263845204520 -2.81854186528653 -0.73484076167617
 6  6.09901380288029  0.69026341534153  0.26250840984098
 6 -6.15996460636064 -0.98403922652265 -0.36757886958696
 6  4.77974862556256  1.27710004190419  0.34177383638364
 6 -5.02211182298230 -1.72167814561456 -0.49696107770777
 6  3.62277098869887  0.61436900210021  0.22856480578058
 6 -3.76231161636164 -1.27025765846585 -0.51370380808081
 6  2.34355765716572  1.19656036373637  0.17358184608461
 6 -2.56668566796680 -1.82110716941694 -0.57093037313731
 6  2.25219959155916  2.75705507200720  0.44557893119312
 6 -2.51649219461946 -3.35872939943994 -0.64347569766977
 6  1.19967151565157  0.47506884848485  0.02006692369237
 6 -1.39802797589759 -1.09866843884388 -0.44577328242824
 6  1.12027639983998 -1.02557750495049 -0.27000452015202
 6 -0.02072153255326 -1.67157339713971 -0.36208996499650
 1  14.02959306510651  0.22152458195820  0.36177422032203
 1  14.11343835763576  0.03217484178418 -1.27922146054605
 1 -12.47963432843284  1.70231262146215  2.25368893369337
 1 -13.85365622322232  0.54380387268727  2.01837827592759
 1  14.18762938493849 -2.18777959565957 -0.23092653845384
 1  12.84864074577458 -2.23799769976998 -1.32920904420442
 1 -13.89988337653765  2.78033139313931  0.72240327792779
 1 -14.26647143094310  1.74061373557356 -0.49639366146615
 1  12.99024098789879 -1.77281978857886  1.78307018901890
 1  11.94545199969997 -3.16691038313831  1.10896775237524
 1 -11.67707749984999  3.51721944264426  0.12385890289029
 1 -12.48361457535754  3.06871037883788 -1.43844774597460
 1  11.12781615211521 -0.67012008930893 -2.47613574627463
 1  12.41134801550155  0.93094775607561 -2.69944651865187
 1  10.57879545084508  0.96452956465647 -2.24333505300530
 1  13.02486344044404  2.12031893379338  0.54951229172917
 1  11.59651805870587  2.57948785968597 -0.56294045104510
 1  13.17483934023402  2.19015928582858 -1.21408367946795
 1 -13.41608083878388 -0.69050305930593 -0.52648874957496
 1 -13.50997316991699 -1.43998980318032  1.03026024672467
 1 -12.38136573977398 -1.92994139903990  0.09992410991099
 1 -10.60815330623062  0.07529188978898  2.57544720382038
 1 -10.65079160456046 -1.48372937363736  1.97237125332533
 1 -12.17435149914991 -0.95895036293629  2.63206173427343
 1  9.80983439003900  1.98131299139914  0.63777968586859
 1 -10.18102254695469 -1.63894900490049 -0.42468884688469
 1  9.37731180868087 -0.74268186288629  2.31327508510851
 1  10.81658247234724 -1.78059425732573  3.07709913991399
 1  9.57578964616462 -2.32290214021402  1.65755537713771
 1 -9.38566560186018  1.34259657225723 -1.92040453735374
 1 -9.57856266116612  3.27934145614561 -1.29165921212121
 1 -10.71497176217622  2.60613561896190 -2.47707768106811
 1  8.45458104890489 -0.71018179837984  0.11412446204620
 1 -8.05505890109011  0.70365455955596 -0.41310496299630
 1  7.84245747784778  2.99254429032903  1.66609599209921
 1  6.61933381408141  3.40067777197720  0.60809338903890
 1  7.85404964266427  3.23695235723572 -0.22972619551955
 1 -8.30915186738674 -2.83972103120312 -1.64630132373237
 1 -8.34997598589859 -3.20683387068707  0.37954409370937
 1 -7.10255480808081 -3.42212486378638 -0.71379026422642
 1  6.08907977247725 -0.38292351915191 -0.15884790149015
 1 -5.90298228282828 -0.00330839233923 -0.16968724552455
 1  4.66133949124912  2.24253269736974  0.67936084288429
 1 -5.01126122642264 -2.99172268866887 -0.74237637873787
 1  3.77118738543854 -0.60837540744074  0.17003664206421
 1 -3.70585821702170 -0.19468313841384 -0.31934380108011
 1  2.80447114651465  2.99922031813181  1.41690034533453
 1  1.06114331513151  2.92469320112011  0.76009573707371
 1  2.57731479027903  3.26432690619062 -0.41892586218622
 1 -3.37361923152315 -3.84578293419342 -1.62525753655366
 1 -2.86504811061106 -3.69643163606361  0.41835648704871
 1 -1.61820279157916 -3.87804813921392 -0.77722994939494
 1  0.36656905770577  0.97874378957896  0.16590723592359
 1 -1.55325641424142 -0.13627564036404 -0.34592231833183
 1  2.07748629312931 -1.49819886958696 -0.46032559675968
 1 -0.00154964416442 -2.62356739903990 -0.67036789768977

