%nproc=4
%Mem=2GB
# td=(NStates=1) B3LYP/6-31G(d,p) 

TD

0 1
 6  12.06917125972597  0.61205180568057 -0.82867898679868
 6 -12.16920923502350 -0.08271331293129  0.87475665456546
 6  13.41426083878388 -0.18252791279128 -0.74106010501050
 6 -13.05743224312431  1.18869326082608  1.13313402780278
 6  13.16603891809181 -1.72371804420442 -0.62656441524152
 6 -13.39583417951795  2.09153766586659 -0.00304993789379
 6  11.08369016291629  0.01110537503750  0.19020655845585
 6 -10.96566423422342  0.45388527082708 -0.10849848464846
 6  12.42813725112511 -2.00492278627863  0.67877185348535
 6 -12.05196507910791  2.75608591679168 -0.52212054795480
 6  11.20686039403940 -1.20753280778078  0.87952452085209
 6 -11.03353814801480  1.64346996879688 -0.68408728242824
 6  11.65748633633363  0.65315644074407 -2.23781225982598
 6  12.48718213161316  2.07017107220722 -0.32952447144714
 6 -12.95443303410341 -1.13695081378138  0.12674650455045
 6 -11.51049991799180 -0.58402157575758  2.16666481468147
 6  9.97974603720372  0.80502661626163  0.39298129862986
 6 -9.91307111401140 -0.57069961206121 -0.26472055985599
 6  10.21551572787279 -1.56556636833683  1.86683931883188
 6 -9.95133810401040  2.08930066916692 -1.72733419831983
 6  8.60315655535554  0.42757271347135  0.29280748694870
 6 -8.61845480388039 -0.29494936023602 -0.32498882178218
 6  7.44882345054505  1.23893269356936  0.40584319691969
 6 -7.50626952085209 -1.21840031513151 -0.34815521242124
 6  7.65939898959896  2.73290592779278  0.66130856785679
 6 -7.94712190039004 -2.68763877497750 -0.59605688328833
 6  6.16878077957796  0.70200458945895  0.39093125212521
 6 -6.18283689358936 -0.85791661426143 -0.33484559625963
 6  4.82491314201420  1.23233556545655  0.43647330633063
 6 -5.04951456325633 -1.76365234303430 -0.45038642024202
 6  3.66113482508251  0.51724929012901  0.32697464676468
 6 -3.84143952915292 -1.24275490819082 -0.37931036873687
 6  2.31925522692269  1.23771447914791  0.36672116001600
 6 -2.53801280068007 -1.85154021272127 -0.43962724282428
 6  2.25413978557856  2.73387275377538  0.47324169746975
 6 -2.59957050245025 -3.42939646614661 -0.78114946504650
 6  1.17838938743874  0.48454979657966  0.26578149514951
 6 -1.40834900800080 -1.14410298229823 -0.21653035813581
 6  1.02952732493249 -0.97630257745775  0.17859033933393
 6 -0.08435789618962 -1.66781302110211 -0.08575233123312
 1  13.91635174097410 -0.14672224272427  0.20663870677068
 1  14.14401141494149  0.10002162646265 -1.54016755515552
 1 -12.57418378337834  1.85781817201720  1.82200576537654
 1 -13.99926078367837  0.82462195449545  1.61075751385138
 1  14.13471409340934 -2.33484430213021 -0.53833727952795
 1  12.74731061276128 -2.06286018601860 -1.43021914521452
 1 -14.23179656785679  2.84789814981498  0.26161719931993
 1 -14.08601338513851  1.52753242744274 -0.80037405950595
 1  13.41241320512051 -1.71884439103910  1.41467334933493
 1  11.92066952145214 -2.93142683478348  0.82663951955195
 1 -11.79240903300330  3.56894461516152  0.12799931693169
 1 -12.31234744864486  3.25435894369437 -1.62874677587759
 1  11.59433280378038 -0.31380445774577 -2.62236036873687
 1  12.33614049474948  1.21925658695870 -2.85072164616462
 1  10.73808137943794  1.28942205390539 -2.36174689418942
 1  12.44688564266427  2.12823972587259  0.66109344984498
 1  11.83206161306130  2.95641555245525 -0.78908306530653
 1  13.65920777707771  2.29257952785279 -0.64599687078708
 1 -13.34009324002400 -0.78012202120212 -0.79691579227923
 1 -13.80637280988099 -1.59361516571657  0.79079630033003
 1 -12.51285888908891 -2.00181858675868 -0.28136401890189
 1 -11.16248873977398  0.28080244084408  2.80510016911691
 1 -10.51200772617262 -1.18509951065107  2.08702271847185
 1 -12.31352541654165 -0.96228069596960  2.76288481658166
 1  10.16875028162817  1.75193005310531  0.46486239413941
 1 -10.22713715841584 -1.46406151615161 -0.23948032603260
 1  9.49822389988999 -0.87647524222422  2.26816057365737
 1  10.67419823392339 -2.00457665556556  2.79766119611961
 1  9.72203427062706 -2.34678452845285  1.34617423902390
 1 -9.22456949224922  1.39274158675868 -2.07023952085208
 1 -9.40312511741174  2.89833335533553 -1.34924497069707
 1 -10.43355362036204  2.44786979237924 -2.48822879617962
 1  8.32196778757876 -0.52034281448145  0.21382443204320
 1 -8.20584397959796  0.70090428452845 -0.31401505400540
 1  8.11972520462046  2.73839887578758  1.50600998349835
 1  6.78329020972097  3.37168487268727  0.74051663136314
 1  8.09499373707371  3.20652931493149 -0.08061128402840
 1 -8.61185213741374 -2.64744180328033 -1.33493018661866
 1 -8.30129111741174 -3.07807099439944  0.27187332663266
 1 -7.09343389598960 -3.37657030833083 -0.77266615181518
 1  6.07954881938194 -0.41470669746975  0.28297628092809
 1 -5.99457144174417  0.21328326682668 -0.07165744254425
 1  4.75149850715071  2.38960740484048  0.54803771057106
 1 -5.25524562486249 -2.77335085148515 -0.62595473657366
 1  3.45880614731473 -0.58581315121512  0.15316495489549
 1 -3.89032666386639 -0.08226189628963 -0.42497436413641
 1  2.53480417981798  2.90642103820382  1.48483713901390
 1  1.33352055285529  3.25243597539754  0.54893462096210
 1  2.81122818161816  3.21642211571157 -0.17213118271827
 1 -3.00507237683768 -3.49186754265427 -1.71248625942594
 1 -3.13171477727773 -4.03653564646465 -0.01952730133013
 1 -1.43709468076808 -3.92721305570557 -0.73433565996600
 1  0.26635903670367  1.14290020522052  0.09979062426243
 1 -1.41907299589959 -0.10954296709671  0.00702297619762
 1  1.90432897739774 -1.48860791049105  0.15347578337834
 1 -0.04244373357336 -2.72381742404240 -0.39468032893289

