%nproc=4
%Mem=2GB
# td=(NStates=1) B3LYP/6-31G(d,p) 

TD

0 1
 6  12.13002734533453  0.48397899839984 -0.81150726962696
 6 -12.15629794389439  0.01934689308931  0.84720389928993
 6  13.44409382208221 -0.25589524952495 -0.52080807980798
 6 -12.98912541244125  1.11792618411841  1.34282499689969
 6  13.25697801200120 -1.73969964236424 -0.41534329312931
 6 -13.38794339043904  2.06800531263126  0.23514388148815
 6  11.02977477137714 -0.00152588808881  0.21173871167117
 6 -11.04363203100310  0.44646452875288 -0.04942257705771
 6  12.34866930433043 -2.07730002400240  0.70892486878688
 6 -12.16592647524752  2.66099640784078 -0.53957229312931
 6  11.18360806880688 -1.06022807730773  0.93299986838684
 6 -11.01305609980998  1.63058868066807 -0.73137201090109
 6  11.71842242994300  0.24472559765977 -2.31704018261826
 6  12.40789420282028  1.98694274937494 -0.52660417941794
 6 -13.14548213901390 -1.10804792349235 -0.01728789888989
 6 -11.62259112711271 -0.70961413501350  2.06972512071207
 6  9.90986904950495  0.90194630823082  0.31053305380538
 6 -9.97661746864686 -0.52374491659166 -0.31846593439344
 6  10.34768894519452 -1.48226803850385  2.12703533843384
 6 -9.93560653085309  2.24595633473347 -1.59842130703070
 6  8.62017825752575  0.42969292549255  0.30277848404840
 6 -8.62965592399240 -0.39548941424142 -0.29371569446945
 6  7.49685825402540  1.35445424572457  0.52208482108211
 6 -7.59708860276028 -1.41693016811681 -0.38713911081108
 6  7.56313936363636  2.84338697589759  0.76071850885088
 6 -8.01899908810881 -2.77317732883288 -0.76506378397840
 6  6.19844374587459  0.83034742374237  0.28576073507351
 6 -6.31580018991899 -0.99066988958896 -0.15776788848885
 6  4.88203885458546  1.43394572647265  0.27379703870387
 6 -5.08661827362736 -1.66785276307631 -0.30046142774277
 6  3.74501321292129  0.68762632783278  0.12224417371737
 6 -3.82477786298630 -1.23341397409741 -0.18616105380538
 6  2.46629993139314  1.20722142984298  0.28005249314931
 6 -2.58717771717172 -1.85726078477848 -0.40366364646465
 6  2.28040241184118  2.70404977147715  0.61201557485749
 6 -2.50744128952895 -3.28141166766677 -0.80583193329333
 6  1.29509105760576  0.53250459205921  0.12709762676268
 6 -1.38444661776178 -1.09557812981298 -0.26626533163316
 6  1.20453482568257 -0.88891383858386 -0.29560708040804
 6 -0.00195965636564 -1.62353859365937 -0.43437719371937
 1  14.09460956675668  0.00929335883588  0.41768981188119
 1  14.10693770757076 -0.11655003070307 -1.36349988838884
 1 -12.50205657065706  1.50648303850385  2.23422698749875
 1 -13.95027588518852  0.78209770207021  1.85211164926493
 1  14.23267388938894 -2.25900671837184 -0.22388583438344
 1  12.78302418411841 -2.16715061506151 -1.18976509980998
 1 -13.88460184838484  2.96881024102410  0.63288432603260
 1 -14.00523530733073  1.57674734893489 -0.37597161926193
 1  12.89292125592559 -2.06379888648865  1.63060494249425
 1  11.85023247774777 -3.16179987208721  0.49030588618862
 1 -11.85720551265127  3.59421714241424 -0.00100358335834
 1 -12.73935014891489  2.90389389718972 -1.56054995619562
 1  11.48091146164617 -0.85454853215322 -2.40946907960796
 1  12.47796467716772  0.64276893819382 -3.02320889488949
 1  10.80426799809981  0.84210732243224 -2.38621934143414
 1  12.70714166826683  2.01053795569557  0.67456479697970
 1  11.60244865176518  2.59257916881688 -0.82575673267327
 1  13.35770762706271  2.34098436833683 -1.14312658375838
 1 -13.49298852955295 -0.37311132013201 -0.95563166386639
 1 -14.07028920152015 -1.49914571877188  0.43073029372937
 1 -12.61495909910991 -1.87025543044304 -0.45825170767077
 1 -10.77835032593259 -0.16857249664967  2.73576323542354
 1 -10.94896142154215 -1.80400140084008  1.81471548774878
 1 -12.50710477447745 -0.82637710561056  2.81960048814881
 1  10.04731813841384  2.00398525862586  0.23539944784478
 1 -10.33897834253425 -1.54873998399840 -0.31671804980498
 1  9.67437151465147 -0.48664625932593  2.38203196079608
 1  10.79208002210221 -1.64551074897490  3.03369479947995
 1  9.64443651085109 -2.38486833683368  1.94323394499450
 1 -9.47882491779178  1.48057036963696 -2.34745724262426
 1 -9.08694349924992  2.76823034503450 -1.18102814901490
 1 -10.33508377337734  3.05897090249025 -2.24108408170817
 1  8.36298188898890 -0.76196697689769  0.14044709430943
 1 -8.17634102930293  0.63125731983198  0.12416876437644
 1  8.28327155925593  3.04996003190319  1.57335671817182
 1  6.62276415711571  3.33877158135814  0.74205678537854
 1  8.38553279097910  3.29117777977798  0.04953173027303
 1 -8.34310526272627 -2.72895995509551 -1.85833252685268
 1 -8.87921891019102 -3.11963515081508 -0.25777963866387
 1 -7.03397795039504 -3.35670832213221 -0.68354723992399
 1  6.21324218871887 -0.34107933473347  0.20145812911291
 1 -5.82138412301230 -0.07949601110111  0.28371809500950
 1  4.77721107840784  2.41353979807981  0.43133604040404
 1 -5.05841594189419 -2.77739125552555 -0.77089923102310
 1  3.78393866056606 -0.45717028692869 -0.04247460906091
 1 -3.71695932713271 -0.18264193429343  0.36376450975098
 1  2.33731443084308  2.92411280738074  1.83633228852885
 1  1.22175937673767  2.91928266006601  0.40928065556556
 1  3.22821988078808  3.25982645614561  0.19295532593259
 1 -3.26394826442644 -3.47466582248225 -1.62424743554355
 1 -2.73172477827783 -3.98886087898790  0.25093974537454
 1 -1.53615458675868 -3.62144247864786 -1.07685991239124
 1  0.35267766856686  1.00278619381938  0.35920656585659
 1 -1.41850293889389 -0.07292930573057 -0.06997472357236
 1  2.04093263776378 -1.41384043374337 -0.55971553575358
 1 -0.00894038323832 -2.52890793309331 -0.89219007990799

