--Link1--
%nproc=30
%Mem=30GB
%OldChk=cla-s0.chk
%Chk=cla-s0-02391.chk
# wB97XD/Def2TZVP Geom=Checkpoint Guess=Read iop(3/107=0239100000,3/108=0239100000)

cla-s0

0 1

--Link1--
%nproc=30
%Mem=30GB
%OldChk=cla-s0-02391.chk
# wB97XD/Def2TZVP Geom=Checkpoint iop(3/107=0239100000,3/108=0239100000)

cla-s0-Cation

1 2

--Link1--
%nproc=30
%Mem=30GB
%OldChk=cla-s0-02391.chk
# wB97XD/Def2TZVP Geom=Checkpoint iop(3/107=0239100000,3/108=0239100000)

cla-s0-Anion

-1 2

