--Link1--
%nproc=30
%Mem=30GB
%OldChk=cla-s0-01000.chk
%Chk=cla-s0-01100.chk
# wB97XD/Def2TZVP Geom=Checkpoint iop(3/107=0110000000,3/108=0110000000)

cla-s0

0 1

--Link1--
%nproc=30
%Mem=30GB
%OldChk=cla-s0-01100.chk
# wB97XD/Def2TZVP Geom=Checkpoint iop(3/107=0110000000,3/108=0110000000)

cla-s0-Cation

1 2

--Link1--
%nproc=30
%Mem=30GB
%OldChk=cla-s0-01100.chk
# wB97XD/Def2TZVP Geom=Checkpoint iop(3/107=0110000000,3/108=0110000000)

cla-s0-Anion

-1 2

