%nproc=4
%Mem=2GB
# td=(NStates=1) CAM-B3LYP/6-31G(d,p) 

TD

0 1
 8  14.78872709170917 -2.19594706580658 -0.60306915991599
 8 -14.88057465446545  2.02772462846285  0.58477757175718
 6  11.58420171417142 -1.10092072617262  1.22045540654065
 6 -12.28767639963996 -0.87195975597560  0.78818434043404
 6  13.04324305630563 -1.34814785288529  1.08406597859786
 6 -13.80645325432543 -0.18646480648065  0.69923881988199
 6  13.35332732673267 -1.76387191429143 -0.31049593859386
 6 -13.56245858585859  1.29426222422242  0.73750553455346
 6  11.02972149814982 -0.22143635973597 -0.08912315831583
 6 -11.30573767476748 -0.27370839983998 -0.18643939793979
 6  13.07811203020302 -0.81049180628063 -1.35872674567457
 6 -12.86432719271927  1.68044602160216 -0.61994903690369
 6  11.71861660866087 -0.25398577167717 -1.17902641864186
 6 -11.69636322632263  0.78010433343334 -0.86158569756976
 6  11.29799052605261 -0.26641579967997  2.56598703970397
 6  10.76623606460646 -2.44768524962496  1.36149426942694
 6 -11.80017221122112 -0.91540336833683  2.23391197119712
 6 -12.57612831483148 -2.42021746474647  0.44232613661366
 6  9.61973679967997  0.28703974087409  0.12038871887189
 6 -10.08666003300330 -1.03417750275028 -0.32909159015902
 6  11.24425719071907  0.38900336523652 -2.40766497349735
 6 -10.79756219521952  1.35913629762976 -1.96671597859786
 6  9.26444641164116  1.53069650755076 -0.23405877987799
 6 -8.82521300630063 -0.51112466946695 -0.20600164616462
 6  8.06640262626263  2.18488822872287  0.05673134213421
 6 -7.57174231623162 -1.25558989208921 -0.45534086608661
 6  8.21670215121512  3.69801800670067  0.46939830583058
 6 -7.72721382738274 -2.75476522462246 -0.77234740974097
 6  6.94029943694369  1.46701669556956 -0.02620262626263
 6 -6.45827763076308 -0.54392986808681 -0.35604861086109
 6  5.58015856785679  1.98563627052705  0.20892580858086
 6 -5.11128225022502 -1.09341921802180 -0.41841401540154
 6  4.44409834083408  1.27019243314331 -0.00533616261626
 6 -3.97963338333833 -0.30959716581658 -0.31446877687769
 6  3.11174377937794  1.63967456535654  0.22950461546155
 6 -2.67968173217322 -0.73242757285729 -0.44798245824582
 6  2.81941222222222  2.96900634953495  0.72755546454645
 6 -2.41416691069107 -2.14335163726373 -0.79231027102710
 6  2.09978955395540  0.79684684858486 -0.00550967596760
 6 -1.59228055105511  0.13466317221722 -0.15005683268327
 6  0.63017018601860  0.95938070597060  0.13166904690469
 6 -0.24721359035904 -0.01606371147115 -0.28746638663866
 1  13.44897416941694 -0.54824825992599  1.34842968096810
 1  13.44603983998400 -2.12776335743574  1.87323745574557
 1 -14.19746252325232 -0.66454661166117  1.53834104010401
 1 -14.49518088508851 -0.39554647764776 -0.12141376137614
 1  12.70189539153915 -2.69397414051405 -0.53408147314731
 1 -12.84876033703370  1.62224674267427  1.58275774877488
 1  13.80908184018402 -0.07518023812381 -1.32999888388839
 1  13.49204069706971 -1.10687291439144 -2.24029470547055
 1 -13.55195073907391  1.50145146614661 -1.53233116611661
 1 -12.54473308030803  2.57953001700170 -0.75080196319632
 1  11.78214683468347 -0.87038776487649  3.42329699069907
 1  10.35179104410441 -0.19751926202620  2.81558043904390
 1  11.81998126812681  0.71832156505651  2.46771590659066
 1  10.82375137813781 -3.08045862596260  0.54896028202820
 1  11.23381429842984 -3.03933885098510  2.11694161816182
 1  9.64661066206621 -2.44501549464946  1.63335827882788
 1 -11.62103900390039  0.21033660466047  2.51393528652865
 1 -10.89572408140814 -1.63065022002200  2.37526353035304
 1 -12.54668582758276 -1.44426533153315  2.97444004000400
 1 -13.62738251925192 -2.71624287628763  0.88226273527353
 1 -11.78642169016902 -3.20125215321532  0.58515357135714
 1 -12.67080743874387 -2.45985629362936 -0.86885535953595
 1  8.92744456845685 -0.55075339543954  0.55408959295930
 1 -10.22814254625463 -2.14770849484949 -0.72986261926193
 1  10.09323174217422  0.43637373527353 -2.55737044004400
 1  11.75059349434944  1.29206349724972 -2.77527724172417
 1  11.45406964196420 -0.47804829192919 -3.30891802180218
 1 -11.36598760576058  1.83463669266927 -3.01850334333433
 1 -10.23808934793479  0.51447208420842 -2.23798840484048
 1 -10.35489724472447  2.29023763676368 -1.67833142914291
 1  14.98456500950095 -2.92809171427143  0.05866775977598
 1 -15.28379781478148  2.07689260326033  1.60489869486949
 1  10.02459794179418  2.27252055595560 -0.57932724772477
 1 -8.71581827882788  0.58714081208121 -0.04374918791879
 1  8.83529639163916  4.45838569146915 -0.23450975397540
 1  7.08231162016202  4.19638504740474  0.60234606760676
 1  8.95452016201620  3.67684057095710  1.30101311931193
 1 -8.74492152215221 -3.19019594869487 -0.10428626762676
 1 -7.96684244024402 -2.75875488958896 -1.91641797179718
 1 -6.62887173617362 -3.30310396249625 -0.58312510451045
 1  6.94864652765277  0.36993073597360 -0.19031242324232
 1 -6.52593285528553  0.54868470837084 -0.25502787978798
 1  5.58921830583058  2.88383353125313  0.70568282328233
 1 -4.91890571057106 -2.25207651475147 -0.59375677567757
 1  4.51126422542254  0.38654690059006 -0.33867227822782
 1 -4.23211871587159  0.66663178007801  0.06025882188219
 1  3.46685447044704  3.02930697259726  1.60153635463546
 1  1.74583123612361  3.13366203710371  1.11810421842184
 1  2.85560958295830  3.87206504040404 -0.16798729472947
 1 -2.82559469646965 -2.87406455355536 -0.12768581258126
 1 -2.74401390939094 -2.26125724582458 -1.69545351235124
 1 -1.28796559555956 -2.39969014411441 -0.88447148314831
 1  2.26610376837684 -0.08843749484948 -0.52185008900890
 1 -2.06642604360436  1.10799071697170 -0.02485909890989
 1  0.33230897789779  2.01423412931293  0.02074786978698
 1  0.13882665266527 -1.03522347244724 -0.38983656765677

