%nproc=4
%Mem=2GB
# td=(NStates=1) CAM-B3LYP/6-31G(d,p) 

TD

0 1
 8  14.71793001200120 -2.15076254735474 -0.48649750275028
 8 -14.52898949594959  2.34900675667567  0.80669976397640
 6  11.50060335433543 -0.92713334743474  1.27494085508551
 6 -12.34365199719972 -0.92406496649665  0.80033555555556
 6  13.01249998199820 -1.19230226832683  0.97080465246525
 6 -13.62253486248625  0.01133497349735  0.67533642964296
 6  13.32273426742674 -1.79116464356436 -0.35353024202420
 6 -13.35169750975098  1.54944774277428  0.72918470247025
 6  10.96559508550855 -0.25955017111711 -0.04343858985899
 6 -11.38379548054805 -0.21742277127713 -0.20546130013001
 6  12.97924214321432 -0.71994275137514 -1.36164703770377
 6 -12.66616737673767  1.92133011001100 -0.48081512351235
 6  11.61343609060906 -0.25167554065407 -1.26286480248025
 6 -11.47417100710071  0.91888821182118 -0.83270280928093
 6  11.35224595159516 -0.05184434253425  2.40412085308531
 6  10.85652509350935 -2.27546802790279  1.48780690069007
 6 -11.67582977697770 -0.89088091609161  2.17094567456746
 6 -12.66506720872087 -2.35873131613161  0.37129903390339
 6  9.63775860186019  0.30712174907491  0.11307798779878
 6 -10.11310267726773 -1.07756184118412 -0.28290697169717
 6  11.13752651765176  0.45742020692069 -2.53685789278928
 6 -10.53435587458746  1.45893627762776 -1.90018932593259
 6  9.32892285928593  1.68624206210621 -0.05690106410641
 6 -8.81885237023702 -0.59279283628363 -0.47098814481448
 6  8.02148813481348  2.22364210411041  0.18380404940494
 6 -7.64022916491649 -1.35180951405141 -0.60462579457946
 6  8.04336481748175  3.65512371727173  0.53933529952995
 6 -7.77605871187119 -2.81490123822382 -0.80464063906391
 6  6.78926433343334  1.55757575147515 -0.07938794479448
 6 -6.47376917991799 -0.72351782688269 -0.50562356835684
 6  5.44368492049205  1.94670237713771  0.20481539753975
 6 -5.17110823282328 -1.34974485058506 -0.75687786178618
 6  4.43361729272927  1.08225363926393 -0.04919054805481
 6 -4.04155957595760 -0.63017922402240 -0.39822715271527
 6  3.01239384438444  1.43417401530153  0.28083974897490
 6 -2.63135689968997 -1.01621595169517 -0.35270293029303
 6  2.75669595059506  2.85572502140214  0.72410511951195
 6 -2.35674116811681 -2.50486778887889 -0.81794283428343
 6  2.00381995699570  0.69076624052405 -0.00011913691369
 6 -1.66683800680068 -0.07860815491549 -0.10782260926093
 6  0.59086625562556  0.87073184108411  0.21325720572057
 6 -0.22997186618662 -0.20556266136614 -0.16902454245425
 1  13.64084335633564 -0.34392782788279  1.10920575857586
 1  13.22215745174517 -1.77605818691869  1.85932606460646
 1 -14.24083686068607 -0.18093825082508  1.50121732773277
 1 -14.20338170517052 -0.15659258225823 -0.18591021102110
 1  12.47735293729373 -2.58425316841684 -0.35975404040404
 1 -12.82429789078908  1.77762228022802  1.53233270627063
 1  13.66394732673267  0.12638991889189 -1.36147203120312
 1  13.11062255525553 -1.38793102020202 -2.30908158415842
 1 -13.52247779177918  1.80241156215622 -1.41400933393339
 1 -12.49743835083508  2.94407647164716 -0.37928481148115
 1  12.00395901590159 -0.33546427252725  3.29439410041004
 1  10.18638450345034  0.00358084798480  2.59616849784978
 1  11.59966923692369  1.01494122702270  2.35011414641464
 1  10.91490049304930 -3.00447102720272  0.74563994999500
 1  11.35044596159616 -2.64284920202020  2.44386431043104
 1  9.76870287128713 -2.23089408250825  1.75733067606761
 1 -11.56725362536254  0.14023959495950  2.51224511751175
 1 -10.66152066106611 -1.27718487348735  2.00478648264827
 1 -12.13857501650165 -1.60129103410341  2.95334793079308
 1 -13.65048482948295 -2.74482573457346  1.08332284128413
 1 -11.69092214021402 -2.87551957995800  0.47569262526253
 1 -12.95926628462846 -2.52115242324232 -0.56009448344835
 1  8.80527235123512 -0.17950627072707  0.58544272827283
 1 -10.38613834583458 -2.10412413641364 -0.15337497049705
 1  9.97926034503450  0.70421051895190 -2.25952065506551
 1  11.46278471347135  1.45621991289129 -2.93365307930793
 1  11.18558279327933 -0.10247073417342 -3.61101823182318
 1 -10.96689769676968  1.96049927892789 -2.70403189618962
 1 -9.92379791879188  0.70236087308731 -2.28260286628663
 1 -9.89300105510551  2.42508112111211 -1.58529212521252
 1  14.77305385838584 -2.50864977007701  0.55909780278028
 1 -14.98136757175717  1.95855076907691  1.63453165816582
 1  10.11864734673467  2.34845814971497 -0.33918323332333
 1 -8.61609830683068  0.50684278227823 -0.36043085608561
 1  8.59303216521652  4.33632348524853  0.04416811381138
 1  7.23860724972497  4.31757716661666  0.53352918591859
 1  8.25291000100010  3.64018690559056  1.59584260226023
 1 -8.35078210821082 -3.43021995109511  0.07905206620662
 1 -8.25629138513851 -2.99728874297430 -1.65890222022202
 1 -6.79146799579958 -3.18501215331533 -0.93349014101410
 1  6.97738940194019  0.42455619851985 -0.42610600260026
 1 -6.32821308330833  0.29964980488049 -0.09779215621562
 1  5.31757114111411  3.12570771867187  0.38288054305431
 1 -5.02267608760876 -2.49867117421742 -0.85619301930193
 1  4.64867796679668  0.04801304720472 -0.54703311431143
 1 -4.29545504950495  0.33024814171417 -0.08176538053805
 1  3.18064584958496  2.82323636553655  1.68068426942694
 1  1.66094274727473  3.08526719761976  1.00624303230323
 1  3.15396941894189  3.59502733663366  0.16270577457746
 1 -2.88971110811081 -3.18754590169017 -0.09233227722772
 1 -2.56616612461246 -2.63032415251525 -2.01032499949995
 1 -1.29342614161416 -2.46421659675968 -0.55904894089409
 1  2.27674483248325 -0.21239989108911 -0.39750765476548
 1 -2.17407680868087  1.07537745564557  0.04509789678968
 1  0.20990673767377  1.86378908480848  0.31985778077808
 1  0.29433220322032 -1.12679262936294 -0.38359594359436

