%nproc=4
%Mem=2GB
# td=(NStates=1) CAM-B3LYP/6-31G(d,p) 

TD

0 1
 8  14.72869108810881 -2.16667413851385 -0.58497735073507
 8 -14.95686228322832  1.88420027602760  0.71378047204720
 6  11.66347964196420 -1.06666730083008  1.28292165316532
 6 -12.27442507450745 -0.89130169016902  0.82149767176718
 6  13.08288702070207 -1.35568860696070  0.99420699269927
 6 -13.81381399039904 -0.26189234923492  0.78611750775078
 6  13.35801779577958 -1.96974250135013 -0.38883377237724
 6 -13.64633697369737  1.29534233223322  0.67665944994499
 6  10.99603812981298 -0.33644786088609  0.05904165816582
 6 -11.42217931893189 -0.24704573357336 -0.26747750175017
 6  12.93673789278928 -1.00047080418042 -1.51259213221322
 6 -12.98056881688169  1.60611858885889 -0.62560960296030
 6  11.67508225522552 -0.22069244234423 -1.21013952995300
 6 -11.70381397139714  0.89434575757576 -0.88638817781778
 6  11.58347907490749 -0.16173533163316  2.50681112211221
 6  10.77748718971897 -2.34307478857886  1.49323744374437
 6 -11.66136833083308 -0.72385421342134  2.22244082408241
 6 -12.49283998599860 -2.42180762376238  0.58780068406841
 6  9.77251207720772  0.35673671057106  0.22770945094509
 6 -10.09871123812381 -1.02679676467647 -0.55367404840484
 6  10.96994975997600  0.31865633053305 -2.40227443444344
 6 -10.88497093609361  1.49682006600660 -2.00802010901090
 6  9.37550751775177  1.56414985288529 -0.11589696369637
 6 -8.81425191019102 -0.51057461446145 -0.48622966896690
 6  8.07729371537154  2.14795453535354  0.14466013501350
 6 -7.60225536753675 -1.25897023012301 -0.67017234923492
 6  8.12520300130013  3.66228443334333  0.39332069806981
 6 -7.79470057605761 -2.75442519061906 -0.92376255125513
 6  6.86211161816182  1.50824081798180  0.11731172517252
 6 -6.42909471247125 -0.59010448554855 -0.44771777777778
 6  5.49015956795680  2.06850455735574  0.26972188818882
 6 -5.08407952995300 -1.12996287238724 -0.54482665666567
 6  4.52434636563656  1.23909932383238  0.05422979397940
 6 -4.07498291829183 -0.37220342644264 -0.22778010801080
 6  3.09529213421342  1.64980557845785  0.23976564156416
 6 -2.57161092509251 -0.66922125222522 -0.40913857385739
 6  2.89918019901990  3.01290073897390  0.62094480348035
 6 -2.23213870787079 -2.05996329842984 -0.73745478547855
 6  2.14645422042204  0.71052821672167 -0.00208933393339
 6 -1.65851717471747  0.18209791569157 -0.01844367136714
 6  0.71422859185919  0.93841860976098  0.18412429242924
 6 -0.23975284428443 -0.06728883398340 -0.12723036303630
 1  13.78122739473947 -0.40669410451045  1.01910674867487
 1  13.44022925892589 -2.16882746384638  1.50852098409841
 1 -14.34244702170217 -0.65095525252525  1.65944315031503
 1 -14.29833120012001 -0.63294021702170 -0.16420804080408
 1  12.89845504750475 -2.75792053515352 -0.48615668066807
 1 -13.01906736773677  1.62714723272327  1.46768624162416
 1  13.71469240124013 -0.09195191529153 -1.65506139013901
 1  13.14322581558156 -1.44882710981098 -2.58554923092309
 1 -13.81063660766076  1.41382270327033 -1.43279121212121
 1 -12.78968757575758  2.56199826382638 -0.56021290429043
 1  12.17033565356536 -0.61449217531753  3.18701336233623
 1  10.60868673367337 -0.06668617871787  2.74929381038104
 1  12.18699796979698  0.72642237513751  2.25958509350935
 1  11.11974097709771 -2.97212779287929  0.73985937193719
 1  10.95711662866287 -2.87736265336534  2.45486541054105
 1  9.77435343634363 -2.17426841994199  1.52956789978998
 1 -11.60818771877188  0.34276984798480  2.53342723572357
 1 -10.60844535353535 -1.07398455345535  2.19354535853585
 1 -12.14190534953495 -1.29699060406041  3.00082267826783
 1 -13.29156893789379 -2.91879313131313  1.33588809780978
 1 -11.55579862786279 -2.91621364936494  0.82958801480148
 1 -12.83073343134313 -2.54792510051005 -0.39975844984498
 1  8.96422824682468 -0.26526484658466  0.68361254525453
 1 -10.15348508050805 -2.14238796279628 -0.61908154115412
 1  9.95525794479448  0.61540163806381 -2.35224992799280
 1  11.58637707270727  1.23690798169817 -2.97137685168517
 1  11.03542777777778 -0.41555204230423 -3.26715384538454
 1 -11.60836184318432  1.98772200120012 -2.79472096509651
 1 -10.07871341034103  0.85248588558856 -2.12652725872587
 1 -10.41559331433143  2.32786139913991 -1.64663825982598
 1  14.77405395839584 -2.89666857195720  0.09146103910391
 1 -15.37090652565256  1.61425633963396  1.71664986998700
 1  9.93793927592759  2.26324962886289 -0.66924623962396
 1 -8.75801249824982  0.47533963196320 -0.13882869586959
 1  8.61492435443544  4.32609246214621 -0.47904420742074
 1  7.17120050905090  4.05716112501250  0.37008284128413
 1  8.83592830283028  4.03721660856086  1.40155317331733
 1 -8.36195322532253 -3.26444337343734 -0.18123396239624
 1 -8.34039979597960 -2.75718473257326 -1.90472680268027
 1 -6.93800264926493 -3.29104275637564 -0.89501629362936
 1  6.96296795979598  0.45937968086809 -0.16255964796480
 1 -6.72982324432443  0.49384922482248 -0.11388376537654
 1  5.39921930593059  3.11654680258026  0.64652690769077
 1 -4.87150097009701 -2.21893320042004 -0.93478087808781
 1  4.74269736873687  0.16750499639964 -0.18646705770577
 1 -4.26665216921692  0.53832894979498  0.09074187018702
 1  3.50956874187419  3.43093713561356  1.54680088108811
 1  1.79291594459446  3.15514418531853  0.91339374737474
 1  3.19011303330333  3.67300513441344 -0.36834733073307
 1 -2.51814395139514 -2.89707685478548 -0.04206725072507
 1 -2.56568607660766 -2.53014413451345 -1.77513148014801
 1 -1.06375317431743 -2.17052722782278 -0.95020805680568
 1  2.53263042104210 -0.23583223432343 -0.22691059505951
 1 -1.85896529752975  1.16341625952595  0.49441282828283
 1  0.25351109810981  1.94620732663266  0.53194898989899
 1  0.30929369936994 -1.05879582968297 -0.19472705670567

