%nproc=4
%Mem=2GB
# td=(NStates=1) CAM-B3LYP/6-31G(d,p) 

TD

0 1
 8  14.83440165916592 -2.15874334543454 -0.42181103410341
 8 -14.76432302930293  2.10563241924192  0.94504359835984
 6  11.59182247624762 -1.03670430453045  1.33754711571157
 6 -12.27291492349235 -0.90203276327633  0.76424194619462
 6  13.17697642964296 -1.34139717781778  1.14674224622462
 6 -13.54613722272227 -0.16762292229223  0.77615651165117
 6  13.48240023402340 -1.85148067516752 -0.17969285828583
 6 -13.53286562656266  1.36423922192219  0.88443022702270
 6  11.02733125912591 -0.21337555365537  0.00556631063106
 6 -11.40456755775577 -0.27635866486649 -0.33748450245024
 6  13.13439765876588 -0.79388014511451 -1.29999087208721
 6 -12.90090085008501  1.66273425042504 -0.42990003200320
 6  11.69906465346535 -0.24384475757576 -1.11731024702470
 6 -11.54815840584058  0.96299262226223 -0.79713925292529
 6  11.44011473847385 -0.20762992109211  2.53272371337134
 6  10.65584502550255 -2.26431691279128  1.29662778277828
 6 -11.57774996899690 -0.90986281428143  2.10125870587059
 6 -12.65749645164517 -2.29315475847585  0.31039294329433
 6  9.64569939593959  0.30688172507251  0.12090877087709
 6 -10.11844321132113 -1.12570665566557 -0.44902358335834
 6  11.14293705870587  0.38129259415942 -2.41612581958196
 6 -10.76278871787179  1.49582996699670 -1.97420672767277
 6  9.34897486448645  1.54834827272727 -0.16063143714371
 6 -8.86753723872387 -0.59003256025603 -0.28575962196220
 6  8.06987297329733  2.14637437733773  0.09238490749075
 6 -7.65946108810881 -1.35047938103810 -0.50203553555356
 6  8.09111959295930  3.58834703960396  0.36218758475848
 6 -7.82357346334633 -2.73693344144414 -0.97169734473447
 6  6.84493990099010  1.53634362826283 -0.04765477147715
 6 -6.46500830383038 -0.68683415851585 -0.29293229922992
 6  5.53967451945195  1.88865657255726  0.07438235423542
 6 -5.11629275127513 -1.20471034713471 -0.46638881288129
 6  4.38008193919392  1.19531494539454 -0.08414404340434
 6 -3.99786520652065 -0.41199740584058 -0.19533686368637
 6  2.97885049004900  1.65057565546555  0.07344900990099
 6 -2.68062182618262 -0.76775110521052 -0.52031969196920
 6  2.73658393939394  3.10516996589659  0.67048975797580
 6 -2.42560805480548 -2.26391369346935 -0.79940098009801
 6  2.03320289528953  0.62391955585559 -0.06208533353335
 6 -1.68848017101710  0.15044475037504 -0.25539736673667
 6  0.58637580658066  0.92034680258026 -0.02940706070607
 6 -0.34049291829183 -0.00542264736474 -0.33935157515752
 1  13.60051932393239 -0.34190762586259  1.25090992899290
 1  13.32729796579658 -2.10914149524953  1.88921905390539
 1 -14.32794557155716 -0.47755791279128  1.52073927992799
 1 -13.87698906590659 -0.26553347634764 -0.20994261426143
 1  12.64029923192319 -2.73809855295530 -0.26384444944495
 1 -12.85121058205821  1.66491100910091  1.82138161116112
 1  13.97592852485248 -0.08681140124012 -1.18554443844384
 1  13.40014150715072 -1.14893712081208 -2.38507918391839
 1 -13.40371591559156  1.47120844184418 -1.37777571057106
 1 -12.66239484648465  2.72491455545555 -0.41078796179618
 1  11.91274989498950 -0.59567029312931  3.47771243224322
 1  10.36052191719172  0.02227271717172  2.63723260426043
 1  11.76108537853785  0.90967069997000  2.43948308330833
 1  10.80554955795579 -2.95872645274528  0.44402978897890
 1  11.03161407840784 -2.88638355545555  2.08672859685969
 1  9.56587258825883 -1.94000499359936  1.58923386638664
 1 -11.50854775477548  0.27487305830583  2.21587548054805
 1 -10.56817132613261 -1.46895405040504  1.94109011301130
 1 -12.08006916591659 -1.44899580458046  3.05512810881088
 1 -13.48721850285028 -2.88704995699570  0.82969747874787
 1 -11.76174922292229 -3.06822885088509  0.16362141814181
 1 -13.14837519551955 -2.14499480748075 -0.81672014601460
 1  8.90285210921092 -0.28438675877588  0.44179836383638
 1 -10.07240697269727 -2.16628035203520 -0.78203783678368
 1  10.03589600860086  0.46629672757276 -2.43787849084909
 1  11.55122355735574  1.40426471737174 -2.51964167816782
 1  11.60059429442944 -0.29115960306031 -3.26455358535854
 1 -11.43274428142814  1.93665689468947 -2.71839333233323
 1 -10.03792933193319  0.72845348234823 -2.29728433443344
 1 -10.23168492349235  2.37684629762976 -1.48677227322732
 1  14.80414696769677 -2.97063596869687  0.14306619961996
 1 -14.94919435443544  2.05089000300030  1.90610881588159
 1  9.97403288528853  2.17526082998300 -0.82356167116712
 1 -8.75044174117412  0.31952405040504  0.08444363136314
 1  8.73195605760576  4.13428328122812 -0.36560286328633
 1  7.06494988398840  4.13556896579658  0.43525935893589
 1  8.50564527452745  3.77095998289829  1.34947796579658
 1 -8.53973100310031 -3.20063699279928 -0.20386622562256
 1 -8.20627638363836 -2.84703371747175 -1.92411874187419
 1 -6.90300914991499 -3.30970462256226 -0.67099389138914
 1  6.92437410041004  0.56989073197320 -0.25807919991999
 1 -6.61087134913491  0.35466530643064  0.16155377837784
 1  5.33875325932593  2.83543869176918  0.28932118711871
 1 -4.67185100510051 -2.12886419351935 -0.63116051605161
 1  4.61678477747775  0.09967821372137 -0.22868127912791
 1 -4.21564706870687  0.50286540344034  0.13026582258226
 1  3.48064584958496  3.49342338423842  1.41226742774277
 1  1.82809946294629  3.09708837973797  1.09041144914491
 1  2.89414343634363  3.73217105100510 -0.10774127012701
 1 -2.81778391539154 -2.80944809190919  0.10850780678068
 1 -3.08232774077408 -2.64123524362436 -1.71190515751575
 1 -1.42328912791279 -2.43832400750075 -0.84139717571757
 1  2.24037119511951 -0.26912556365637 -0.38804670867087
 1 -1.85982538353835  1.05228514641464  0.02359574657466
 1  0.13831957895790  1.87603030893089  0.41808760376038
 1  0.00512328232823 -0.92161211131113 -0.91845942994299

