%nproc=4
%Mem=2GB
# td=(NStates=1) CAM-B3LYP/6-31G(d,p) 

TD

0 1
 8  14.65368358735873 -2.39714718581858 -0.47715656865687
 8 -14.76217281428143  1.99969182518252  0.74411350535054
 6  11.42144543854385 -1.12824345844584  1.20145350635064
 6 -12.30220785278528 -0.94640720072007  0.87447296929693
 6  12.82619135113512 -1.47068010611061  1.02485005700570
 6 -13.71617422642264 -0.31494765476548  0.72604150015002
 6  13.28234022802280 -1.98274380148015 -0.33889877887789
 6 -13.54724706470647  1.17123992199220  0.68331011501150
 6  10.92591111711171 -0.33785800190019  0.01152690669067
 6 -11.32031913291329 -0.34399542854285 -0.24636539053905
 6  12.93843806280628 -0.88873963106311 -1.28939981298130
 6 -12.76772753275328  1.72416039303930 -0.49528657065707
 6  11.51488623562356 -0.33274364746475 -1.08883739973997
 6 -11.56578016801680  0.83276959996000 -0.84661420042004
 6  11.30884161116112 -0.17918707680768  2.46923736473647
 6  10.58909835083508 -2.42147262836284  1.50303842384238
 6 -11.69127132113211 -0.91391321932193  2.22628120812081
 6 -12.44786548854885 -2.45620106310631  0.42342424642464
 6  9.49652447844785  0.25364640154015  0.19402608260826
 6 -10.14299566656666 -1.06806089108911 -0.62871155215522
 6  11.16270903590359  0.41228569346935 -2.38254246124612
 6 -10.79823226222622  1.51246163016302 -1.92051135813581
 6  9.37787775477548  1.49135257315732 -0.02445781978198
 6 -8.87180766576658 -0.69751330833083 -0.22477352335234
 6  8.07140312631263  2.32485222512251  0.11115678467847
 6 -7.65577071907191 -1.38682301540154 -0.39737506950695
 6  8.32462294329433  3.80786899179918  0.53775514151415
 6 -7.64641574757476 -2.86747649574958 -0.90966114111411
 6  6.95174058105811  1.76522651655165 -0.09685969196920
 6 -6.45829763276328 -0.59491496659666 -0.17814082008201
 6  5.47339789178918  2.16509421632163  0.19777469346935
 6 -5.13137425942594 -1.08509838593859 -0.35917809180918
 6  4.50329426042604  1.41657707160716 -0.22302793179318
 6 -4.04184960496050 -0.26034224032403 -0.28832616261626
 6  3.19796240124012  1.67815841374137 -0.00287862286229
 6 -2.61596536053605 -0.60848517861786 -0.42084974497450
 6  2.89237951895190  3.15563501240124  0.62752546154615
 6 -2.41721721572157 -2.06237353945395 -0.90501154115412
 6  2.23511308630863  0.77264442834283 -0.26565569056906
 6 -1.55575689868987  0.25707541344134 -0.24029585658566
 6  0.73471064006401  0.99134390229023 -0.02103622362236
 6 -0.14500336933693 -0.00799290439044 -0.21977961796180
 1  13.35275454745475 -0.55424885998600  1.19304414241424
 1  13.10807604360436 -2.28088866996700  1.90846097809781
 1 -14.35527830483048 -0.64192434943494  1.63034024002400
 1 -14.18889025602560 -0.72435935893589 -0.13428504850485
 1  12.71195639763976 -2.86097084018402 -0.53547161216122
 1 -12.93661912291229  1.54164868286829  1.51629110211021
 1  13.83617454945495 -0.05011773187319 -1.30322620662066
 1  12.99469096209621 -1.28380060716072 -2.47598827482748
 1 -13.45917146114611  1.78263958495850 -1.24882281528153
 1 -12.13715232223222  2.60829289328933 -0.39219610261026
 1  11.73340196019602 -0.80712143824382  3.26867152815282
 1  10.25453131813181 -0.05972548264826  2.33008188918892
 1  11.55005427542754  0.92032176507651  2.08036717171717
 1  11.09467847084708 -3.22115269536954  0.70180556655666
 1  10.93741465846585 -2.70434535163516  2.63054297829783
 1  9.59351535253525 -2.29401039413941  1.31864680768077
 1 -11.72600950095010  0.12383795479548  2.49875376837684
 1 -10.57449195819582 -1.22748990399040  2.46896290029003
 1 -12.42458361736174 -1.16773767876788  2.89951254725473
 1 -13.52676245724572 -3.00444169616962  0.82346685568557
 1 -11.73818686668667 -3.17774980298030  1.10620567656766
 1 -12.54532489048905 -2.70527083508351 -0.78792726672667
 1  8.71255307930793 -0.33122144224422  0.47911209520952
 1 -10.26688642064207 -1.99174289828983 -1.11522115511551
 1  10.16578899789979  0.82816291419142 -2.30767547054706
 1  11.93236167116712  1.17784207510751 -2.59813952795280
 1  11.15559979497950 -0.23557404450445 -3.01996912691269
 1 -11.59801080808081  1.88170139913991 -2.65731722472247
 1 -10.14433997299730  0.65305594259426 -2.36047065306531
 1 -10.03434518951895  2.26274488748875 -1.69408300430043
 1  14.87863441644164 -3.07878678377838  0.25096698969897
 1 -14.89900933593359  1.98683359735974  1.90670887588759
 1  10.27653313531353  2.07656095999600 -0.37584689968997
 1 -8.83823052005200  0.42367446544654  0.32593778077808
 1  8.67611047304730  4.25781563446345 -0.45931223422342
 1  7.31788517751775  4.22050745964597  0.85275110811081
 1  9.06053076307631  3.92111499839984  1.27242026002600
 1 -8.16409343934393 -3.55267219631963 -0.30691653065306
 1 -8.17800355635564 -2.95768478257826 -1.96223255325533
 1 -6.71341019001900 -3.20005365746575 -0.93189998199820
 1  6.99868153115312  0.77903164606461 -0.47491088308831
 1 -6.75252551455146  0.37567740764076  0.18822644564456
 1  5.52824220822082  3.05462060996100  0.56344859985999
 1 -4.79004282428243 -2.16473778087809 -0.54675207520752
 1  4.84513761276128  0.40990923682368 -0.51416982798280
 1 -4.19719522352235  0.71298641554155  0.14717751375138
 1  3.12820060506051  3.14536857875788  1.76713291429143
 1  1.68339499249925  3.39570824172417  0.23614602260226
 1  3.66592061406141  3.97623545744574  0.11845134913491
 1 -2.58826096309631 -2.69787693479348 -0.07677072107211
 1 -3.03404291229123 -2.47940906100610 -1.66035000200020
 1 -1.42052885188519 -2.28706888198820 -1.15012804880488
 1  2.45093225122512 -0.37039569066907 -0.42130003400340
 1 -1.86239564056406  1.09780969886989  0.39022240924092
 1  0.25410115711571  1.98692139803980  0.35505130013001
 1  0.39472224222422 -0.79369932003200 -0.58398598259826

