%nproc=4
%Mem=2GB
# td=(NStates=1) CAM-B3LYP/6-31G(d,p) 

TD

0 1
 8  14.59239745874588 -2.28506597769777 -0.42905175817582
 8 -14.61620821782178  1.97021887788779  0.67836693069307
 6  11.33466676067607 -1.05250588468847  1.17286064706471
 6 -12.21918955095509 -0.90537309730973  0.88185370737074
 6  12.87320605260526 -1.64824786288629  0.98345591759176
 6 -13.58459106810681 -0.24472063206321  0.90627952395240
 6  13.19099109310931 -2.14278980608061 -0.33267815681568
 6 -13.36835917591759  1.30304310231023  0.68019980398040
 6  10.95250377637764 -0.28947316341634 -0.00369461546155
 6 -11.36239334033403 -0.35347637663766 -0.16596735073507
 6  12.82283650265027 -0.99760051715172 -1.40784165716572
 6 -12.70481124112411  1.65412338933893 -0.62655969796980
 6  11.56615136213621 -0.25175554865487 -1.20264878087809
 6 -11.57984157415741  0.72312863586359 -0.91894143314331
 6  11.34680540754075 -0.25448460656066  2.49875031603160
 6  10.46528596959696 -2.33949443054305  1.45787390739074
 6 -11.53589578357836 -0.78776060406041  2.30412899289929
 6 -12.55947664966497 -2.43443888688869  0.72477438143814
 6  9.61326615261526  0.34836587348735  0.25617229722972
 6 -10.06176754375438 -1.11439552455246 -0.30548922992299
 6  11.13033579857986  0.53924838973897 -2.39131333833383
 6 -10.76799923892389  1.28755913991399 -2.13517282428243
 6  9.30620058705871  1.58942238013801  0.00985561156116
 6 -8.87597808280828 -0.64530808780878 -0.21779282528253
 6  8.07369335533553  2.34109384928493  0.23529919891989
 6 -7.50865600760076 -1.35981031413141 -0.45514084608461
 6  8.13289377037704  3.81324952985299  0.57001836783678
 6 -7.68489959595960 -2.85202495059506 -0.73658383338334
 6  6.95141054805481  1.61641163506351  0.00862085608561
 6 -6.39634143714371 -0.62519799489949 -0.44067707370737
 6  5.60398095009501  2.11886959385939  0.24261917791779
 6 -5.09035015701570 -1.15041491759176 -0.66994916891689
 6  4.50148407940794  1.34893030693069 -0.03965959495950
 6 -4.02358777877788 -0.26836304240424 -0.43294062406241
 6  3.08058066306631  1.72223282118212  0.13682534753475
 6 -2.55361912591259 -0.61109543964396 -0.60898855885589
 6  2.76815709670967  3.08077752665266  0.78472118111811
 6 -2.33168866286629 -2.02616991909191 -1.07365840584058
 6  2.14266384138414  0.83789095299530 -0.08573769876988
 6 -1.65960728372837  0.26582628852885 -0.37964979197920
 6  0.60573774277428  1.04144891279128 -0.04295841584158
 6 -0.20487935693569  0.06498439333933 -0.43994163416342
 1  13.37768704070407 -0.84799823492349  1.32100693869387
 1  13.03107834383438 -2.32526310741074  1.86183631563156
 1 -14.06823960096010 -0.54032418941894  1.79516672267227
 1 -13.94621598859886 -0.65312223522352  0.11423980398040
 1  12.66770197219722 -2.89482422552255 -0.78720678567857
 1 -12.70378583958396  1.54699921792179  1.53874334733473
 1  13.57818875087509 -0.23921664176418 -1.36744262826283
 1  12.61124261726173 -1.38954118121812 -2.35406608260826
 1 -13.57535307930793  1.78627994899490 -1.47457539053905
 1 -12.37069567656766  2.60345240924092 -0.53658054105411
 1  11.64384300430043 -0.79676040214021  3.21949661066107
 1  10.32110797579758 -0.01232074217422  2.82756163716372
 1  11.93242251225123  0.57230696359636  2.36159529452945
 1  10.43540254325432 -2.95857643774377  0.57253263926393
 1  10.66210712771277 -3.14910982808281  2.17054697869787
 1  9.35298129912991 -2.17463845694569  1.51870681368137
 1 -11.35497239723972  0.30470604160416  2.51331522452245
 1 -10.52784729372937 -1.23545070007001  2.09623562756276
 1 -12.34203536253625 -1.13618452345235  3.00980357635764
 1 -13.41173095409541 -2.79815106710671  1.43675818481848
 1 -11.79328237623762 -2.95942797079708  1.10006506250625
 1 -12.93553391139114 -2.61608191619162 -0.29044751875188
 1  8.83147497149715 -0.07986630673067  0.60340452445245
 1 -10.05061479347935 -2.25094881888189 -0.48680831383138
 1  10.14601702070207  0.87666776467647 -2.10707541054105
 1  11.84906334133413  1.48424271517152 -2.55775548954896
 1  11.28124235923593 -0.08370885798580 -3.29956708670867
 1 -11.66038704570457  1.50148337733773 -2.97047854085409
 1 -10.17556309530953  0.45015565256526 -2.52951755775578
 1 -10.24426618161816  2.18347696069607 -1.93825742174217
 1  14.79849640264026 -3.27627653275328  0.06233812681268
 1 -14.94566400140014  1.93631854585459  1.54602280728073
 1  10.22842832483248  2.24616792069207 -0.30444975997600
 1 -8.78920561756176  0.42516461446145  0.10707589458946
 1  8.68513137513751  4.41894174707471 -0.17225352835284
 1  7.15844923392339  4.21289669856986  0.54866069906991
 1  8.59894460446045  3.76561944884488  1.67686070407041
 1 -7.85849287928793 -3.47832476157616  0.27468162916292
 1 -8.40942669866987 -3.19109812391239 -1.51689801980198
 1 -6.74906375537554 -3.31083473557356 -1.01401819381938
 1  7.21873353635364  0.73251699459946 -0.36399979197920
 1 -6.51502176417642  0.35359519941994 -0.10420279727973
 1  5.43144252825283  3.09566471437144  0.46892914791479
 1 -5.19445326532653 -2.15434674177418 -0.88993639363936
 1  4.74438753775378  0.37894614051405 -0.42474088508851
 1 -4.10896640064006  0.71664678157816 -0.07405460946095
 1  3.34388217321732  3.17283132503250  1.64620082108211
 1  1.77520417341734  3.33217188808881  1.19506191419142
 1  2.96148017001700  3.97394522842284  0.14126363036304
 1 -2.91983412041204 -2.62292944004400 -0.55156820082008
 1 -2.63815332333233 -2.25405652575258 -2.13091705870587
 1 -1.20648744774477 -2.28971914701470 -1.04383741974197
 1  2.28957611561156 -0.31925057615762 -0.29004690869087
 1 -1.85527492849285  1.24196411431143  0.00455384238424
 1  0.38581432843284  2.01066377227723  0.21229702470247
 1  0.15370814081408 -0.89888983908391 -0.67627521152115

