%nproc=4
%Mem=2GB
# td=(NStates=1) CAM-B3LYP/6-31G(d,p) 

TD

0 1
 8  14.76907512651265 -2.15143261436144 -0.24119297229723
 8 -14.70764736173617  1.98212006800680  1.03764285828583
 6  11.42665595959596 -1.05003563766377  1.43370673167317
 6 -12.27469510151015 -1.01317387738774  0.90689621162116
 6  12.90939967196720 -1.36665970407041  1.20157772977298
 6 -13.62004461346135 -0.19506566656666  0.89552844884488
 6  13.34379637363736 -1.90077560466047 -0.07656254525453
 6 -13.51739407940794  1.29899269726973  0.93954573857386
 6  10.95131365736574 -0.28267248334833  0.05074082808281
 6 -11.37783488448845 -0.26773780278028 -0.11060181418142
 6  13.01107532653265 -0.84330508760876 -1.11886275927593
 6 -12.77847860786079  1.79326730373037 -0.34080112211221
 6  11.57041178817882 -0.26693706680668 -1.16753526952695
 6 -11.54999858985899  0.89065538853885 -0.65588512751275
 6  11.24014474147415 -0.10439959805981  2.63847428842884
 6  10.56630607160716 -2.42205268636864  1.52394051405141
 6 -11.66433862786278 -0.96933876187619  2.28978755875588
 6 -12.51486218821882 -2.46141158415842  0.50075197919792
 6  9.58728355435544  0.22013305020502  0.13758043804380
 6 -10.14724609160916 -1.08253233823382 -0.37676635763576
 6  11.14185695069507  0.31721618651865 -2.44091829882988
 6 -10.76789922892289  1.58219860386039 -1.68729803680368
 6  9.36942690969097  1.63882732063206 -0.07434280828083
 6 -8.83910439543954 -0.57815137213721 -0.34562560856086
 6  8.05628161416142  2.30386012591259 -0.00440477147715
 6 -7.56277141914191 -1.34719905300530 -0.56142147414741
 6  8.05056553755376  3.69267747264727  0.57266863286329
 6 -7.69600070607061 -2.74383413151315 -1.01875205020502
 6  6.93436884388439  1.48041803570357 -0.22503250925093
 6 -6.41598340134013 -0.63932940804080 -0.46549955595560
 6  5.56549710171017  1.99565727262726 -0.08779386338634
 6 -5.04444556655666 -1.13852372847285 -0.74420659465947
 6  4.48516244724472  1.19039445334533 -0.22087771677168
 6 -4.04908032803280 -0.28640484658466 -0.46047337733773
 6  3.13037564256426  1.55976657455746 -0.03073140814081
 6 -2.66746051005100 -0.65226955705571 -0.77615527552755
 6  2.81879216021602  2.93182263116312  0.60702341134113
 6 -2.43278877287729 -2.12798010011001 -1.07631867186719
 6  2.13543311831183  0.71122828672867 -0.35489461446145
 6 -1.66774809780978  0.18714842074207 -0.38112993999400
 6  0.68003517251725  0.94723949184918 -0.28074219421942
 6 -0.21886075507551  0.03848174307431 -0.55051269126913
 1  13.46312558455846 -0.39950338543854  1.37778261626163
 1  13.19264450045005 -1.93529411051105  1.98767889988999
 1 -14.23081585858586 -0.58093825082508  1.73175038103810
 1 -13.98767013401340 -0.37467439043904 -0.11075269526953
 1  12.64750995299530 -2.69334407750775 -0.13274133913391
 1 -12.83831929292929  1.61549606760676  1.82399187218722
 1  13.97174810681068  0.03246052595260 -1.13919980398040
 1  13.29054054705471 -1.17970019711971 -2.07047772377238
 1 -13.75701124512451  1.94353567456746 -1.12128006100610
 1 -12.58355696269627  2.96990905490549 -0.00757764076408
 1  11.68245686568657 -0.56375710181018  3.65482014301430
 1  10.20961682668267 -0.06177568766877  2.86744562556256
 1  11.72856212621262  0.66419615251525  2.53696283128313
 1  10.88997800080008 -3.08240882098210  0.84907029302930
 1  10.96893781078108 -2.81953687078708  2.43183310731073
 1  9.47023302430243 -2.17633862696270  1.53474841784178
 1 -11.63935083508351  0.10622619361936  2.47398129112911
 1 -10.73812832183218 -1.29845700070007  2.23363936793679
 1 -12.29607076607661 -1.57660856585659  2.92392498849885
 1 -13.45720550155015 -2.69533078507851  1.02200670967097
 1 -11.75298834683468 -3.09556158415842  0.70720577657766
 1 -12.65052541054106 -2.54607491549155 -0.69194766876688
 1  8.77194901890189 -0.23457177727773  0.58346253025303
 1 -10.15575530753075 -2.20777450145015 -0.73854348734873
 1  10.19718213721372  0.66172627052705 -2.60322502550255
 1  11.88532696769677  1.08183247414742 -2.48959867386739
 1  11.44400863586359 -0.52064255135514 -3.13276040604060
 1 -11.27779878687869  1.86794002300230 -2.46232772577258
 1 -10.03888942794280  0.70808144514451 -1.89577418341834
 1 -10.21696345134514  2.42873148614862 -1.48857245324532
 1  15.14395094809481 -2.48965787088709  0.61481337433743
 1 -15.30901033603360  1.54542945694569  1.79230743574357
 1  10.26180166216622  2.19719302320232 -0.27408672367237
 1 -8.71371806880688  0.40296239423942  0.03136832383238
 1  8.60069293129313  4.40383023592359  0.18106180318032
 1  7.06924031303130  4.27549295819582  0.61382721572157
 1  8.47801251125112  3.51016390329033  1.65530854885489
 1 -8.28532556255625 -3.30887781688169 -0.25301114011401
 1 -8.13867962396240 -2.84230324442444 -2.01074740474047
 1 -6.87108595759576 -3.29378303040304 -1.06161295329533
 1  7.10898256125613  0.33956769966997 -0.49079247124712
 1 -6.51660192219222  0.45195503540354 -0.27669004600460
 1  5.51797118111811  3.02216736463646  0.00935319031903
 1 -4.95035885588559 -2.11546285338534 -1.05476287628763
 1  4.63663676267627  0.21942018791879 -0.57500591159116
 1 -4.28407391139114  0.67050216711671 -0.39100630463046
 1  3.47291507650765  2.75465950785078  1.48968516951695
 1  1.88548520152015  3.32867153805381  0.53118552655265
 1  3.42682670467047  3.67948578247825 -0.04383487948795
 1 -2.88132026902690 -2.62835998309831 -0.24948799279928
 1 -2.79302881088109 -2.39571069116912 -1.94230819781978
 1 -1.37058385738574 -2.44047422252225 -1.15087812381238
 1  2.15327248524852 -0.47776642774277 -0.43650155415542
 1 -1.75799520052005  1.16521643954395 -0.09919653265327
 1  0.42116786378638  1.98464117001700  0.18574436943694
 1  0.14668743874387 -0.86269621972197 -1.00212779677968

