%nproc=4
%Mem=2GB
# td=(NStates=1) CAM-B3LYP/6-31G(d,p) 

TD

0 1
 8  14.67001522052205 -2.28177564866487 -0.22010086308631
 8 -14.70141673867387  2.04126598259826  0.86987608160816
 6  11.40574386838684 -1.03864449854985  1.23458681968197
 6 -12.43433106510651 -0.98981154115412  0.77220274227423
 6  12.88122685468547 -1.49798283638364  1.18461603360336
 6 -13.70967357635763 -0.20659681968197  0.74011290729073
 6  13.21824381838184 -1.97676320342034 -0.25210009900990
 6 -13.41936427642764  1.24416721472147  0.77738952295230
 6  11.03206173217322 -0.29301351745175  0.00269602360236
 6 -11.23082018301830 -0.28997002600260 -0.07105785978598
 6  13.05759997899790 -0.97282803990399 -1.24921579457946
 6 -12.74333509350935  1.74386236323632 -0.46368341034103
 6  11.71785653265327 -0.24936530963096 -1.06264478047805
 6 -11.45623921392139  0.93466978997900 -0.68565810481048
 6  11.19675040204021 -0.14806396449645  2.53620406140614
 6  10.46328576957696 -2.32514299539954  1.42437055705571
 6 -11.78900109410941 -1.11255308330833  2.29023760376038
 6 -12.61373207520752 -2.51148659165917  0.23523542754275
 6  9.66919174517452  0.31378241514151 -0.02528584858486
 6 -10.08379974697470 -1.16198028302830 -0.25987466846685
 6  11.25048781378138  0.42699716461646 -2.32756696369637
 6 -10.68911135013501  1.57213759775978 -1.78453776077608
 6  9.39855982298230  1.70743418131813 -0.14044941894189
 6 -8.79841032603260 -0.52120567756776 -0.26661770777078
 6  8.02618860486048  2.27815755565557 -0.00131446244624
 6 -7.52589773177318 -1.30641497459746 -0.33490882288229
 6  8.11472195319532  3.71393959885989  0.44833619961996
 6 -7.65843694969497 -2.79776952505251 -0.67540771577158
 6  6.88728413541354  1.67132712661266 -0.18807881388139
 6 -6.37006880988099 -0.55818129322932 -0.33645665166517
 6  5.53959451145114  2.07712541944194  0.08001291729173
 6 -5.13877499949995 -1.12145202130213 -0.69217139113911
 6  4.52791672267227  1.25427084098410 -0.25235086408641
 6 -3.98046346634663 -0.38060426652665 -0.46339366936694
 6  3.09717232223222  1.68935953385339  0.06370803580358
 6 -2.58339210321032 -0.72704703480348 -0.61753941394139
 6  2.80142042304230  3.04114356325633  0.64588729772977
 6 -2.31655714971497 -2.17990529262926 -1.08684972497250
 6  2.12626220122012  0.81485864976498 -0.22414153915392
 6 -1.71460278327833  0.12945265116512 -0.17832965996600
 6  0.62318948794879  0.95726049394939 -0.07275139513951
 6 -0.24279314831483 -0.04801690679068 -0.35384302430243
 1  13.45806507850785 -0.62510594569457  1.34179901790179
 1  13.27714295029503 -2.28355893699370  1.91156128812881
 1 -14.51691446844684 -0.26229638663866  1.64281148714871
 1 -14.46720808780878 -0.34665158815882 -0.17830945094509
 1  12.63446864886489 -2.84379912301230 -0.59343740874087
 1 -12.91259672067207  1.46727124512451  1.73261273427343
 1  13.99537046904690 -0.20087280738074 -1.20093597759776
 1  13.01908340134013 -1.51070329742974 -2.36904758075808
 1 -13.38181372537254  1.66385770677068 -1.47451538453845
 1 -12.42058066506651  2.85981804580458 -0.31679856285629
 1  11.43682230223022 -0.88112883898390  3.43512817381738
 1  10.16005187018702  0.18028851875188  2.66763564456446
 1  11.79267853785379  0.72063179607961  2.45059419441944
 1  10.52995199819982 -3.06360694079408  0.59232461846185
 1  10.74652556955696 -3.10628554565456  2.29759968396840
 1  9.35461146214621 -2.09360035313531  1.51464640764076
 1 -11.82249914991499  0.06831240224022  2.63367726072607
 1 -10.76563107210721 -1.27137429242924  2.10841684568457
 1 -12.33046420542054 -1.67417832283228  2.96033862986299
 1 -13.56566634763476 -2.82792404440444  0.71874638363836
 1 -11.84941798979898 -3.15730775877588  0.65677073307331
 1 -12.95526588458846 -2.48484879287929 -0.88612708670867
 1  8.87490931493149 -0.26887520762076  0.48401258525853
 1 -9.97761749374938 -2.11169489348935 -0.56191582458246
 1  10.12006442544254  0.64291438933893 -2.64254895789579
 1  11.70001843684368  1.42981727262726 -2.53152286628663
 1  11.43219745474548 -0.15838632573257 -3.16955408540854
 1 -11.37020802780278  2.14921815081508 -2.33532502550255
 1 -9.87804334333434  0.88767940494049 -2.27697230323032
 1 -10.18798055305531  2.37310592359236 -1.07206080208021
 1  14.68033458645865 -2.87604650975098  0.53581547454745
 1 -15.01468090309031  1.54637955195520  1.68756696169617
 1  10.11796727872787  2.44537784168417 -0.40607992299230
 1 -8.77607430443044  0.67062916091609 -0.37135194819482
 1  8.93183604560456  4.24175402830283 -0.22506880988099
 1  6.97132052105210  4.30942635153515  0.32956878987899
 1  8.30742545254525  3.73505639253925  1.56383940194019
 1 -8.40813784378438 -3.22596952605261 -0.08621446044604
 1 -8.05123087908791 -2.76334534863486 -1.87332366236624
 1 -6.67432628162816 -3.20510416251625 -0.55833262526253
 1  6.98468013101310  0.72156589948995 -0.47574096609661
 1 -6.43301356335634  0.46218605850585 -0.19361173817382
 1  5.31325070907091  2.99018416631663  0.28319057405741
 1 -5.15202902290229 -2.19393070017002 -0.97186458645865
 1  4.90881398039804  0.26231447734773 -0.72688109910991
 1 -4.16134163816382  0.66954207110711 -0.12090929492949
 1  3.86692447744774  3.07182122402240  1.37662386338634
 1  1.73361001400140  3.13890256115612  1.24104651265126
 1  2.86441046304630  3.94792262616262 -0.27973846984699
 1 -2.66670880788079 -2.83318046514652 -0.24461750575057
 1 -3.04612412041204 -2.30207132723272 -1.96954092109211
 1 -1.25015181418142 -2.41813198829883 -1.31638467446745
 1  2.72258941694169 -0.06756540764076 -0.70275817981798
 1 -1.75384478547855  1.12680259815982  0.42814620162016
 1  0.33007875487549  1.78135084098410  0.76656245124512
 1  0.17426019601960 -1.02026197629763 -0.71733931793179

