%nproc=4
%Mem=2GB
# td=(NStates=1) CAM-B3LYP/6-31G(d,p) 

TD

0 1
 8  14.70018823782378 -2.22178965006501 -0.34185303830383
 8 -14.66000259725972  2.05483733973397  0.65071416541654
 6  11.36392968696870 -1.02276291039104  1.19672303330333
 6 -12.39528716071607 -0.94330689068907  0.76275179717972
 6  12.83189192119212 -1.41000403850385  1.10845841784178
 6 -13.63407601660166 -0.13193935393539  0.76638553455346
 6  13.34900689468947 -1.97778330543054 -0.23724861386139
 6 -13.41668400840084  1.32999579757976  0.74858664266427
 6  10.93291181718172 -0.31915613171317 -0.00036428242824
 6 -11.30627772877288 -0.28323935293529 -0.14065481948195
 6  12.95399961896189 -0.91486224332433 -1.23644451745175
 6 -12.72257301730173  1.72323030003000 -0.49965700770077
 6  11.55986073307331 -0.23786415951595 -1.18869738573857
 6 -11.48635222522252  0.92908923192319 -0.72094163316332
 6  11.20958168516852 -0.20508966706671  2.55823626462646
 6  10.45652509350935 -2.26091657275728  1.33382150215022
 6 -11.79842203620362 -0.93985581358136  2.14483306330633
 6 -12.62798350035004 -2.47499294229423  0.38206011001100
 6  9.71782660866087  0.48463950085009  0.19065574557456
 6 -10.09322068906891 -1.11085517051705 -0.46254493549355
 6  11.01224398939894  0.45816028092809 -2.37603181018102
 6 -10.53457589658966  1.60644102810281 -1.69306861386139
 6  9.39658962596260  1.70428386628663 -0.20561593559356
 6 -8.88771925692569 -0.65245880288029 -0.24228527452745
 6  8.03933991999200  2.29161890179018 -0.03620795179518
 6 -7.60207534953495 -1.30566489958996 -0.43715904790479
 6  8.03517399839984  3.75534373927393  0.21573293929393
 6 -7.68454956095610 -2.65416516461646 -1.06669684468447
 6  6.84512991999200  1.59444943884388 -0.09855986198620
 6 -6.40745254825482 -0.69928540364036 -0.15724873087309
 6  5.53625417741774  1.95297300420042  0.18025294129413
 6 -5.08052917491749 -1.12205208130813 -0.40489266326633
 6  4.47648157915792  1.24641005490549 -0.09757538653865
 6 -3.89648506850685 -0.43988019411941 -0.12858018801880
 6  3.12616522152215  1.55098569646965  0.23848551355136
 6 -2.63544730873087 -0.81143547364736 -0.48167582758276
 6  2.89177945894589  2.97364681358136  0.69532224122412
 6 -2.34538003200320 -2.23348065016502 -0.90829186918692
 6  2.12672224722472  0.70101726562656 -0.32116124112411
 6 -1.57633895689569  0.05600530643064 -0.25155698269827
 6  0.72981015001500  0.91885665356536 -0.04636875687569
 6 -0.13862273127313 -0.08408051315132 -0.38771641164116
 1  13.56464573657366 -0.61691512661266  1.30892573057306
 1  13.15348058405841 -2.25551613271327  1.80738087008701
 1 -14.29332210921092 -0.32604276127613  1.44505171117112
 1 -14.48672003900390 -0.27214413741374 -0.09969158915892
 1  12.73725892789279 -3.04278902200220 -0.49362742774277
 1 -12.95656111711171  1.54391890989099  1.70704017701770
 1  13.61593252525252  0.06342362226223 -1.12225810981098
 1  13.28069956295630 -1.26814904200420 -2.17191786778678
 1 -13.36722226622662  1.62783410441044 -1.17571550455046
 1 -12.50759936693669  2.71550361436144 -0.35247213021302
 1  11.45817443744374 -1.01801252735274  3.35529019001900
 1  10.21075694069407  0.14433492339234  2.82810169116912
 1  11.70199946994699  0.67070680358036  2.89750888588859
 1  10.57666666966697 -2.95885646574658  0.53709909590959
 1  10.52859377637764 -2.83024794189419  2.25987591159116
 1  9.26430243124313 -1.99980097319732  1.15518046104610
 1 -11.67244414441444  0.09236480748075  2.47418131113111
 1 -10.89574408340834 -1.53878103310331  2.22358836283628
 1 -12.52669382838284 -1.19559046404640  2.89197179317932
 1 -13.48109789078908 -2.83382463446345  0.90747525652565
 1 -11.81560460846084 -3.07093912191219  0.80848590459046
 1 -12.62405276327633 -2.66861716971697 -0.66743521752175
 1  9.05281710571057 -0.07002532263226  0.81363554755476
 1 -10.26791652365237 -2.21468519251925 -0.86365599859986
 1  9.95368778777878  0.69501959985999 -2.07904260726073
 1  11.62411084608461  1.28447273817382 -2.73331304530453
 1  10.85790002500250 -0.31706219331933 -3.15800293029303
 1 -11.08301930893089  1.98869209820982 -2.48585007800780
 1 -9.57881342034204  1.00310094709471 -1.82914752075207
 1 -10.07348910391039  2.57906651965197 -1.01636523252325
 1  14.86256280928093 -2.78751765686569  0.39602149514952
 1 -15.31999143414341  1.48994390839084  1.26511471647165
 1  10.18456393839384  2.43907721162116 -0.53790310531053
 1 -8.65405210221022  0.38487058505851  0.06848203520352
 1  8.52402526452645  4.33896374927493 -0.56444274727473
 1  7.13462685168517  4.07946335523552  0.21354718771877
 1  8.56399110911091  4.14103699059906  1.33576659465947
 1 -7.99615664566457 -3.42305923502350 -0.18858469746975
 1 -8.44913066906691 -2.69858887298730 -1.87339366936694
 1 -6.61431028002800 -3.19018267036704 -1.25704249624963
 1  6.83416507950795  0.68365210811081 -0.26736012801280
 1 -6.42942320432043  0.26845668556856  0.31358898189819
 1  5.57326671067107  2.92479762766277  0.68122037703770
 1 -4.87773159315932 -2.12226353345335 -0.96732413241324
 1  4.56509960896090  0.29990823672367 -0.37536594759476
 1 -4.27847335133513  0.52405752265227  0.58640143614361
 1  3.29052683768377  2.93972801470147  1.92398859985999
 1  1.77272392539254  3.29901857275728  0.48002041004100
 1  3.74764878687869  3.79086692059206  0.03731323532353
 1 -2.68632076907691 -2.99761690879088 -0.22464550855085
 1 -2.81422093009301 -2.27977909800980 -1.98418238523852
 1 -1.43510030903090 -2.44547472257226 -0.96771980798080
 1  2.37299445744575 -0.38024667576758 -0.67008491249125
 1 -1.72349175017502  0.94101401930193  0.27823121012101
 1  0.28666441344134  1.72174488038804  0.45158095309531
 1  0.23777654765476 -0.92762271237124 -1.20285786978698

