%nproc=4
%Mem=2GB
# td=(NStates=1) CAM-B3LYP/6-31G(d,p) 

TD

0 1
 8  14.67610582958296 -2.22899037013701 -0.49740859385939
 8 -14.61677827482748  2.09673152915292  0.52350144414441
 6  11.50657395139514 -1.09337997209721  1.12648600960096
 6 -12.30728836083608 -0.91746430643064  0.74108963096310
 6  12.91273000500050 -1.54871790989099  0.91627919991999
 6 -13.71130373937394 -0.14408056805681  0.77075597159716
 6  13.27571956595660 -1.99169469656966 -0.45076996599660
 6 -13.38334067406741  1.42244504250425  0.62249403340334
 6  10.98490701670167 -0.18612282838284 -0.05180942694269
 6 -11.37594469546955 -0.31684271327133 -0.36110686468647
 6  12.99025324432443 -0.92350310741074 -1.47896876987699
 6 -12.67466822682268  1.77018499549955 -0.73887092909291
 6  11.62750749774978 -0.20302067516752 -1.16791530753075
 6 -11.50180377037704  0.84665098809881 -0.93890342934293
 6  11.41400212721272 -0.27179633773377  2.45601604260426
 6  10.59945938693869 -2.34014449554955  1.24232235223522
 6 -11.64936713071307 -0.80635246324632  2.19759833983398
 6 -12.68800950295030 -2.34093953695370  0.48317022102210
 6  9.68364319031903  0.36360739763976  0.13429010901090
 6 -10.07009837683768 -1.17459154415442 -0.50253893489349
 6  11.12856562156216  0.57307177207721 -2.44139834683468
 6 -10.51826426542654  1.43248363236324 -1.94045335233523
 6  9.30222018901890  1.71679511741174 -0.08132350635063
 6 -8.85717620262026 -0.67214077107711 -0.35103614961496
 6  7.98156414241424  2.33609334923492  0.11001667066707
 6 -7.59465460746075 -1.39172350545055 -0.47238257025703
 6  7.98796927792779  3.77624582948295  0.32359372537254
 6 -7.69244035003500 -2.87676742484248 -0.86620679567957
 6  6.81662706970697  1.58548854275428  0.07754774877488
 6 -6.44185598859886 -0.73055853095310 -0.29567257325733
 6  5.52327287928793  2.03862156905691  0.23550846684668
 6 -5.06803792579258 -1.24979485558556 -0.33861603560356
 6  4.41006493749375  1.23386880078008  0.03528789978998
 6 -3.98874429442944 -0.47751395749575 -0.13210054005401
 6  3.10829343434343  1.67722832073207  0.24227589258926
 6 -2.59561332533253 -0.83603793389339 -0.18378603860386
 6  2.71932221322132  3.13716316521652  0.77064977397740
 6 -2.30576607060706 -2.21665896799680 -0.71671271127113
 6  2.00336991199120  0.79992715661566 -0.03721284628463
 6 -1.64343566656666  0.06534624052405  0.10429860286029
 6  0.67670483948395  0.95285005290529  0.09093497349735
 6 -0.25485435443544 -0.11102320742074 -0.12177981798180
 1  13.80597986998700 -0.81181461656166  1.46345118311831
 1  12.91881711771177 -2.41614219531953  1.58548868086809
 1 -14.03706648364837 -0.45403556055606  1.76793399939994
 1 -14.51961332833283 -0.47230415341534  0.04769314931493
 1  12.68127332933293 -3.02032677577758 -0.81689975497550
 1 -12.80988644964496  2.02731724972497  1.38570804380438
 1  13.91496242824282 -0.20658337843784 -1.41851773577358
 1  12.96463795679568 -1.27142937003700 -2.34028470447045
 1 -13.40971651565157  1.71758307930793 -1.51183911691169
 1 -12.36587519451945  2.84771683568357 -0.86115299829983
 1  11.61610023002300 -1.00734146024603  3.44860952195219
 1  10.20601646664667 -0.13230274037404  2.25467434843484
 1  11.99014828482848  0.58202793569357  2.33953308830883
 1  10.62814181718172 -3.07282786288629  0.56775216121612
 1  10.86038695569557 -2.96545146224623  2.20237016101610
 1  9.50860686168617 -2.00152114521452  1.19076401940194
 1 -11.27675457545755  0.27419299029903  2.27704159715972
 1 -10.90357486648665 -1.52253940894089  2.43374937893789
 1 -12.52259341834183 -1.21653255825583  2.99494209020902
 1 -13.35890567156716 -2.95705695769577  1.23362787178718
 1 -11.88538158615862 -3.09650167816782  0.55435049104911
 1 -13.07801815981598 -2.21727203520352 -0.58519699369937
 1  9.04837666166617 -0.45119343944394  0.46590077407741
 1 -10.02983271527153 -2.19059278327833 -0.67383701670167
 1  10.00002242124212  0.81295139303930 -2.36767147014701
 1  11.57122555755576  1.43193748464846 -2.76366608060806
 1  11.25416965196520 -0.16432691979198 -3.06119324932493
 1 -11.12762376937694  1.57123035203520 -2.77323881688169
 1 -9.60232577157716  0.84789542654265 -2.10204481048105
 1 -10.19563131813181  2.41943055605561 -1.57920151615161
 1  14.92542909590959 -2.96685559065907  0.18514040704070
 1 -14.85876531153115  2.23177809180918  1.46938514351435
 1  10.16459194119412  2.49764306820682 -0.21721103610361
 1 -8.62478917591759  0.36620871887189  0.31874706170617
 1  8.33989685168517  4.39876972987299 -0.67541384438444
 1  6.95111850085008  4.08150355925593  0.64119995299530
 1  8.80592530253025  4.04189707660766  1.34395741374137
 1 -8.38910594059406 -3.47391432053205 -0.23838967796780
 1 -8.08677443344335 -2.89622863696370 -1.97149347934793
 1 -6.63493234223422 -3.16731038313831 -0.97276406840684
 1  6.92476413941394  0.53732747564757 -0.08582197419742
 1 -6.45601586358636  0.30568040794079  0.02822044504450
 1  5.33467285128513  3.10793594149415  0.53832608760876
 1 -4.95715953595360 -2.22452375947595 -0.73063046304630
 1  4.41864496349635  0.27204545044504  0.01287287628763
 1 -3.95939144314431  0.48252336923692  0.26839963596360
 1  3.29794757975798  3.37936197809781  1.66308250925092
 1  1.80854750775077  3.34988365926593  1.16364877287729
 1  3.05022904490449  4.03042087598760  0.20033953795380
 1 -2.79025116211621 -3.07473462056206 -0.21263430743074
 1 -2.83195270327033 -2.39575069516952 -1.59590355735574
 1 -1.27437423642364 -2.58455863096310 -0.57819085508551
 1  2.38929608760876 -0.19570822192219 -0.23509141314131
 1 -1.95786518751875  1.04161407930793  0.51146453345335
 1  0.42339808680868  2.00207291319132  0.19233502850285
 1  0.04289705970597 -0.95767571767177 -0.58660624462446

