%nproc=4
%Mem=2GB
# td=(NStates=1) CAM-B3LYP/6-31G(d,p) 

TD

0 1
 8  14.72466068506851 -2.39762723382338 -0.30898975197520
 8 -14.66907350435043  2.10790264626463  0.99108820282028
 6  11.45402869686969 -1.12776341044104  1.15685904690469
 6 -12.39702733473347 -0.90670323032303  0.95819134113411
 6  12.91711044304430 -1.44345738383838  1.11448902090209
 6 -13.69543215221522 -0.14657081708171  0.85380427642764
 6  13.36338833283328 -1.89347487458746 -0.35043993299330
 6 -13.45533787378738  1.42939573757376  0.73137492149215
 6  10.96153467946795 -0.24605882198220  0.00368612261226
 6 -11.41493859485949 -0.37823885288529 -0.12291304530453
 6  13.28282250125012 -0.61679243634363 -1.18913978697870
 6 -12.81431219121912  1.69896787378738 -0.63220026202620
 6  11.80963571057106 -0.00004037713771 -1.01041955795580
 6 -11.78089167916792  0.67860418341834 -0.94682422142214
 6  11.17911863886389 -0.43817297539754  2.60718115911591
 6  10.47822726372637 -2.44141462256226  1.15326344634463
 6 -11.66357855185518 -0.71355318331833  2.29231781178118
 6 -12.61592229422942 -2.38526396939694  0.66970887488749
 6  9.75189001500150  0.39894093099310  0.14832151215122
 6 -10.09781114811481 -1.15745983098310 -0.36420510151015
 6  11.45413817881788  0.76740120502050 -2.34421862886289
 6 -10.81569400840084  1.31139152315232 -2.07431673867387
 6  9.37509747674767  1.73547698559856 -0.11091646564656
 6 -8.91253173817382 -0.63675723272327 -0.26416746274627
 6  7.95197118311831  2.30902064196420  0.21314698369837
 6 -7.52219736173617 -1.23445777887789 -0.41353668566857
 6  7.91597207820782  3.70782898779878  0.55094646064606
 6 -7.71461256725672 -2.81470121822182 -0.65855603060306
 6  6.92466787378738  1.52068206210621  0.05199519351935
 6 -6.41163296629663 -0.48881435653565 -0.39205221122112
 6  5.49617016901690  1.84465217211721  0.14017893389339
 6 -5.12803392539254 -1.08680855695570 -0.55968814281428
 6  4.50435436643664  1.06343175707571  0.00515488648865
 6 -4.01421684168417 -0.31249745584558 -0.60776810681068
 6  3.03906651165117  1.51477207510751  0.10653231823182
 6 -2.63592735673567 -0.71568589868987 -0.66729438943894
 6  2.83630391139114  2.96047549644965  0.49196190519052
 6 -2.33265875987599 -2.24639194129413 -0.91451249124912
 6  2.11786136113611  0.62091925582558 -0.13858298329833
 6 -1.68834015701570  0.21219092499250 -0.53622544954495
 6  0.73371054005401  0.96637140504050 -0.17024114411441
 6 -0.18215708470847 -0.05079718481848 -0.56604424442444
 1  13.63459273127313 -0.79209264436444  1.45230006800680
 1  13.08669390539054 -2.46592717381738  1.70286041804180
 1 -14.23528630563056 -0.03293345034503  1.90399760576058
 1 -14.23551491849185 -0.70729765276528  0.01558993899390
 1  12.70648585058506 -2.71564630773077 -0.64900296529653
 1 -12.80824628562856  1.72631714971497  1.60283975697570
 1  14.07094802680268  0.07021430133013 -1.11127701170117
 1  13.26615810881088 -0.94212643974397 -2.23813448944894
 1 -13.47596314031403  1.63919524052405 -1.40398833183318
 1 -12.33747235423542  2.77645970997100 -0.85008189118912
 1  11.72785140514051 -1.22072279837984  3.34571923292329
 1  10.15062092709271 -0.35518502860286  2.85364424542454
 1  11.53307257725773  0.63402313521352  2.65242437743774
 1  10.22421142414241 -2.85436601670167  0.12529791579158
 1  10.97473839083908 -3.23379829692969  1.88706863086309
 1  9.45661166216622 -2.38157915101510  1.56055099809981
 1 -11.77722462246225  0.42417798879888  2.47952184518452
 1 -10.61635614461446 -1.25111226622662  2.34518052205221
 1 -12.23695485448545 -1.00573147814781  3.01050364636464
 1 -13.39046882788279 -2.72661391339134  1.24167867686769
 1 -11.72322537053705 -2.95178720672067  0.57224228022802
 1 -13.20292065006501 -2.44861516951695 -0.36601507550755
 1  8.89041086508651 -0.19552787288729  0.79269345334534
 1 -10.30332006400640 -2.26638036203620 -0.45338497149715
 1  10.34916733573357  1.09018911681168 -2.45207991099110
 1  12.19103753875388  1.53029732063206 -2.43439315331533
 1  11.67706194119412  0.09558907180718 -3.19728685868587
 1 -11.43523453045304  1.26177940694069 -2.91213270627063
 1 -9.77567310631063  0.70184082108211 -2.14081868786879
 1 -10.59642139713971  2.42673128612861 -1.78248184418442
 1  14.83485003800380 -3.14128303340334  0.24247614061406
 1 -15.04762419741974  1.65638055205521  1.86947515251525
 1  10.14829031103110  2.19001230513051 -0.56017533253325
 1 -8.85669236623662  0.50154225222522 -0.02937775077508
 1  8.52306516851685  4.40916076897690 -0.18363466646665
 1  6.90601399039904  4.12526793569357  0.49863569656966
 1  8.32939764976498  3.78228111501150  1.53323634163416
 1 -8.12786981698170 -3.21627855695570  0.15431959295930
 1 -8.10517627362736 -3.02829184328433 -1.65809213921392
 1 -6.78253710271027 -3.47524117621762 -0.57920471247125
 1  7.23619528252825  0.45630937383738 -0.07578097009701
 1 -6.53268353035303  0.55585542544254 -0.18354073107311
 1  5.34089347334733  2.91299644754475  0.52057431243124
 1 -5.13388720872087 -2.30315162226223 -0.36737413741374
 1  4.45531863086309  0.06819506540654 -0.25592400340034
 1 -4.17497300130013  0.94544966186619 -0.56556376037604
 1  2.99562734773477  3.05318936083608  1.60030623162316
 1  1.81585823882388  3.31521019191919  0.34524693269327
 1  3.66863088508851  3.58236607050705 -0.22365286128613
 1 -2.52512464946495 -2.77137428452845  0.04201115711571
 1 -2.82025153315332 -2.69098021812181 -1.87731169816982
 1 -1.25378217721772 -2.53688386348635 -0.74836787278728
 1  2.47829498749875 -0.27746639773977 -0.51643954795480
 1 -2.01087048804880  1.28701861976198 -0.30662727572757
 1  0.38742448944895  1.91824453035304 -0.10272447744774
 1  0.18784155415542 -1.03702365246525 -0.93397098109811

