%nproc=4
%Mem=2GB
# td=(NStates=1) CAM-B3LYP/6-31G(d,p) 

TD

0 1
 8  14.80845906490649 -2.14589206030603 -0.43812266526653
 8 -14.75137173417342  1.94988684468447  0.62261135513551
 6  11.50608390239024 -1.07536817091709  1.18249161016102
 6 -12.30885851785179 -0.90371293129313  0.77902342434243
 6  12.96503523552355 -1.44111714981498  1.12117968996900
 6 -13.65725833483348 -0.22153831383138  0.75949484548455
 6  13.38587058105811 -1.91664719181918 -0.26747163616362
 6 -13.55441778177818  1.30939373737374  0.79537132113211
 6  10.95585411141114 -0.29776399249925 -0.09682392839284
 6 -11.27026412741274 -0.26219724872487 -0.18363911791179
 6  13.00146436543654 -0.98626938403840 -1.43651452445245
 6 -12.79485024502450  1.69799777677768 -0.48591563356336
 6  11.61611635863586 -0.26066643974397 -1.26317483348335
 6 -11.55696928692869  0.84845116811681 -0.80900043904390
 6  11.25450617761776 -0.09230838893889  2.39852029302930
 6  10.60834027502750 -2.24383486458646  1.50443856385639
 6 -11.65577777177718 -0.78020984898490  2.21981056105611
 6 -12.48082878487849 -2.40125556855686  0.40233213721372
 6  9.60461528752875  0.34748578547855  0.15030171017102
 6 -10.06121748874888 -0.98455254025403 -0.36527520852085
 6  11.17341010601060  0.41184564946495 -2.47148135513551
 6 -10.72794523352335  1.45196558055806 -1.91687099409941
 6  9.36156612361236  1.58851228912891 -0.01100647464746
 6 -8.92740322532253 -0.49848340534053 -0.23814486048605
 6  8.08789477547755  2.20460019991999  0.19760542954295
 6 -7.67893303530353 -1.28423275637564 -0.49351468346835
 6  8.15848632963296  3.68812701760176  0.53937530353035
 6 -7.82080318631863 -2.67085683378338 -0.89169934493449
 6  6.93317872487249  1.61520151405141 -0.06842684868487
 6 -6.44205600860086 -0.63850932603260 -0.31266427242724
 6  5.59314986698670  2.03030073697370  0.17616253225323
 6 -5.05318644064406 -1.20613048914891 -0.56435860986099
 6  4.46482041304130  1.31300671457146  0.00922529352935
 6 -3.99183460346035 -0.44602080818082 -0.41054838483848
 6  3.04705731073107  1.67989858775878  0.18726039103910
 6 -2.59194295829583 -0.85280961106111 -0.47935559555956
 6  2.79604988598860  3.16960640954095  0.55791850085009
 6 -2.43271876587659 -2.25111241334133 -0.90926196619662
 6  2.06610618561856  0.73024018791879 -0.07985711071107
 6 -1.61925324832483  0.09275898179818 -0.20495232223222
 6  0.60604777377738  0.80697546544654  0.17138301830183
 6 -0.21358022702270 -0.13262536763676 -0.14592223222322
 1  13.54586385838584 -0.51266470157016  1.36765160316032
 1  13.04476971297130 -2.56078665976598  1.72504263626363
 1 -14.25038781578158 -0.72919307630763  1.39597680368037
 1 -14.07555892289229 -0.45390231323132 -0.22049366936694
 1  12.79815501750175 -2.85682042514251 -0.27321538653865
 1 -13.02111757275727  1.58204272227223  1.69027850085008
 1  13.65917684968497 -0.25615833593359 -1.45446133013301
 1  13.08063955695570 -1.74604683178318 -2.39488016401640
 1 -13.44886043004300  1.66798811981198 -1.22980091309131
 1 -12.57064567156716  2.71958402240224 -0.25290217321732
 1  11.78289690969097 -0.61386211231123  3.29270393139314
 1  10.12804866986699 -0.13764327442744  2.69599848084809
 1  11.74315358535853  0.76014574747475  2.37971710671067
 1  10.46251525452545 -3.13363394349435  0.62532791879188
 1  10.92351326832683 -2.87860277737774  2.30835075907591
 1  9.47053305430543 -1.98367936103610  1.59787473047305
 1 -11.66795369536954  0.27134270527053  2.82971686468647
 1 -10.63502801180118 -1.06928408340834  2.21174717871787
 1 -12.14514567356736 -1.70386129112911  2.94388698469847
 1 -13.54890467146715 -2.89960121212121  0.86592110111011
 1 -11.58556160416042 -2.76109813781378  0.95284034003400
 1 -12.60696105410541 -2.29758006600660 -0.71583005700570
 1  8.74771659565956 -0.21179950005000  0.74804898889889
 1 -9.88786851885189 -2.15446917091709 -0.62211184418442
 1  10.07614003300330  0.88361845974597 -2.55880058305831
 1  11.67959639463947  1.42111640254025 -2.64679439343934
 1  11.37840207520752 -0.12730321742174 -3.49662679267927
 1 -11.41403241024102  1.88722195119512 -2.50333182618262
 1 -9.99947548654866  0.89098973597360 -2.29954456045605
 1 -10.13044479947995  2.34685329832983 -1.65345894189419
 1  15.01261781478148 -2.89751865696570  0.08813070607061
 1 -15.34611404640464  1.85696061006101  1.30089829482948
 1  10.29077455945595  2.29662296619662 -0.35452476747675
 1 -8.96103280028003  0.54283638163816  0.08662384938494
 1  8.65616847884788  4.13926377927793 -0.34948125112511
 1  7.35846923592359  4.20139554845485  0.66242207520752
 1  8.69548425842584  3.91949483638364  1.38383140114011
 1 -8.67770480048005 -3.21993892299230 -0.36256209520952
 1 -8.10640639663966 -2.63634264836484 -2.05790212021202
 1 -6.80357920692069 -3.28661231333133 -0.72814960696070
 1  6.90089175217522  0.59862360526053 -0.49124251625163
 1 -6.36021628362836  0.41078091799180 -0.03905628262826
 1  5.39252863686369  2.92590773867387  0.69076133113311
 1 -4.89659347934793 -2.31642294939494 -0.69539693969397
 1  4.57314041304130  0.33019126502650 -0.42181059205921
 1 -4.03313881788179  0.60746586348635 -0.10277748174817
 1  3.05339312431243  3.19702374427443  1.81668786978698
 1  1.71970862386239  3.56680535143514  0.37180958895890
 1  3.30756477847785  3.74035186908691 -0.06767726372637
 1 -3.08153029002900 -2.98955610271027 -0.25981902590259
 1 -2.63806331433143 -2.36118723882388 -1.93905787278728
 1 -1.34145094409441 -2.58509868496850 -0.67310034603460
 1  2.25845300330033 -0.15259391049105 -0.32757066106611
 1 -2.14273367436744  1.01762168006801  0.05327871487149
 1  0.40440618761876  1.88862156805681  0.52368816381638
 1  0.00870364036404 -1.21609155925593 -0.35354293829383

