%nproc=4
%Mem=2GB
# td=(NStates=1) CAM-B3LYP/6-31G(d,p) 

TD

0 1
 8  14.66207442644264 -2.35203267436744 -0.58774762776278
 8 -14.79266586358636  1.94990684668467  0.53685277927793
 6  11.44941823582358 -1.08079871397140  1.21054441544154
 6 -12.35406303830383 -1.00401296129613  0.73531905390539
 6  12.94725345734573 -1.44455749384939  0.97758533053305
 6 -13.70870347934793 -0.28186434643464  0.55728462446245
 6  13.26202819681968 -2.07660318741874 -0.41124601360136
 6 -13.60971331133113  1.32804560256026  0.57261904590459
 6  10.87079560556056 -0.31262547864786 -0.12545679167917
 6 -11.32784988598860 -0.28677970697070 -0.04305505950595
 6  12.86414063306331 -1.02743350045005 -1.46180705370537
 6 -12.80072083208321  1.60490846784678 -0.62258930093009
 6  11.51986673367337 -0.37842821592159 -1.16542505850585
 6 -11.44548813881388  0.84056037903790 -0.76140567956796
 6  11.43199392639264 -0.15476463456346  2.53119356035604
 6  10.69208864986499 -2.43591407250725  1.57171529152915
 6 -12.02764495849585 -1.09765159315932  2.19925850585058
 6 -12.53994469646965 -2.42918836183618  0.14254615861586
 6  9.54300912691269  0.37365840274027  0.15433211321132
 6 -10.02936430343034 -1.03117720272027 -0.28505718671867
 6  10.99022178717872  0.24631909680968 -2.45613982098210
 6 -10.54787722672267  1.48818920292029 -1.79642894989499
 6  9.39563953095309  1.71928536643664 -0.08653402740274
 6 -8.82294277927793 -0.59660321732173  0.03160211421142
 6  8.16211219721972  2.36465620552055  0.07423309230923
 6 -7.52598774077408 -1.28044237733773 -0.36021135313531
 6  8.23952443344334  3.86813501840184  0.42451381738174
 6 -7.58178928492849 -2.65061480958096 -0.91702187718772
 6  6.96515192219222  1.69826982088209  0.00737073107311
 6 -6.43429523252325 -0.61893736883688 -0.08481148714871
 6  5.55393594559456  2.14067177407741  0.27071198719872
 6 -4.98970009200920 -1.06107598369837 -0.37963013701370
 6  4.46745067606761  1.29402481638164  0.05714008500850
 6 -3.94794021402140 -0.27984419051905 -0.31866919691969
 6  3.08116072107211  1.81005160306031 -0.01815015001500
 6 -2.64828859285929 -0.73744807490749 -0.40220788078808
 6  2.81037131813181  3.17437688658866  0.65285799479948
 6 -2.26496199019902 -2.13843114521452 -0.76015705570557
 6  2.04892446744674  0.89592675657566 -0.10341946694669
 6 -1.55864718771877  0.03527323322332 -0.04489631663166
 6  0.66964413341334  1.01248601650165  0.07664354435444
 6 -0.18411728072807 -0.05426753185319 -0.19614725472547
 1  13.45248452045205 -0.49727316241624  1.05570040804080
 1  13.21289652565257 -2.22323290439044  1.83251338333833
 1 -14.26156893389339 -0.57418757575758  1.50234744074407
 1 -14.27986935393539 -0.72115903890389 -0.20702232223222
 1  12.67775297729773 -2.88251299439944 -0.74222228722872
 1 -13.03174863586359  1.77622214021402  1.41981145414541
 1  13.52351328332833 -0.22478519861986 -1.44743062706271
 1  12.98135962896290 -1.53082530963096 -2.35213588958896
 1 -13.30919646364636  1.43376469746975 -1.62155008800880
 1 -12.52911151815182  2.65525758975898 -0.65619250225022
 1  11.74170279027903 -0.77554828092809  3.44069873087309
 1  10.41637750275028  0.21946243614361  2.99309819081908
 1  12.05956522652265  0.86256598949895  2.44887402240224
 1  10.78864786778678 -3.22755333543354  0.80304569056906
 1  11.07700861786179 -2.95143006010601  2.40096002000200
 1  9.68466446744674 -2.32988398149815  1.80074501750175
 1 -11.88550545054505 -0.18587301630163  2.74647854085409
 1 -11.10386489548955 -1.63309046404641  2.29408541254125
 1 -12.77630878987899 -1.61096200120012  2.63082567856786
 1 -13.66689647064706 -2.78490974297430  0.61934644364437
 1 -11.88461150915091 -3.18042007000700  0.29443449944994
 1 -12.63943430143014 -2.36530683868387 -1.02789126312631
 1  8.65577740174017 -0.39750807090709  0.57716190019002
 1 -10.09232896489649 -2.01505522952295 -0.84113374637464
 1  10.01888430743074  0.62523262116212 -2.38085278827883
 1  11.63937237223722  1.09130342124212 -2.56615632963296
 1  11.07624185918592 -0.36891737883788 -3.27687481748175
 1 -11.28944995199520  1.80955418441844 -2.54026551955196
 1 -9.92349788878888  0.80475111211121 -2.26470107610761
 1 -9.99648140314032  2.28801741474147 -1.45954955095510
 1  14.76011256425642 -3.37367627272727 -0.21506961396140
 1 -15.53697313231323  1.63407832183218  1.13862206720672
 1  10.22007748974898  2.26223952785279 -0.64548386338634
 1 -8.66073277027703  0.32493459145915  0.44941012801280
 1  9.00442330433043  4.24878473137314 -0.27457376037604
 1  7.15896928592859  4.29447485638564  0.57689352235224
 1  8.61768647864786  3.93905679257926  1.31100411841184
 1 -7.87652468246825 -3.60938786788679 -0.16884272327233
 1 -8.35289104510451 -2.66426544064406 -1.76548287828783
 1 -6.69904875387539 -2.78655230733073 -1.40810760276028
 1  6.83609527252725  0.74166790969097 -0.43920731273127
 1 -6.49501976397640  0.45795563546355  0.22786040904090
 1  5.37932731673167  3.27220236813681  0.27305956095610
 1 -4.78436225622562 -2.09537084418442 -0.84207160716072
 1  4.54442754175418  0.35142338823882 -0.47737614861486
 1 -4.21232673667367  0.84475959285929  0.00020281628163
 1  3.17220500550055  3.34118816071607  1.63269947094709
 1  1.73844049704970  3.41033970487049  0.61458386638664
 1  3.43990801280128  3.98097593149315  0.14556406040604
 1 -2.94941707870787 -2.72832998009801  0.05519247524753
 1 -2.77299680768077 -2.41024214431443 -1.69938390539054
 1 -1.28994579357936 -2.50599077417742 -0.88707174317432
 1  2.27798495649565 -0.20677932903290 -0.41866977097710
 1 -1.89198859985999  0.89719963786379  0.31723511051105
 1  0.24998074507451  1.90564327022702  0.53158895389539
 1  0.17173994399440 -0.88298824892489 -0.55877346134613

