%nproc=4
%Mem=2GB
# td=(NStates=1) CAM-B3LYP/6-31G(d,p) 

TD

0 1
 8  14.88699691869187 -1.96333380448045 -0.15727458045805
 8 -14.79706630363036  1.91444330033003  0.82519161316132
 6  11.51638493249325 -0.99711034513451  1.25000836183618
 6 -12.32477010901090 -0.85668822882288  0.79770529252925
 6  13.03776250825083 -1.26298933703370  1.05085265726573
 6 -13.65087769676968 -0.16114227422742  0.75582447844784
 6  13.35432742674267 -1.74631015811581 -0.19671456045605
 6 -13.56939927992799  1.28716151415142  0.79552133613361
 6  11.06713523952395 -0.29515373147315 -0.07416166216622
 6 -11.32247934893489 -0.20772180118012 -0.21083183718372
 6  13.15401962096210 -0.69898065516552 -1.30435130813081
 6 -12.83836459645965  1.73522149914991 -0.41678872087209
 6  11.81734648164817 -0.19209958305831 -1.23082159815982
 6 -11.57307089708971  1.06438276127613 -0.73362290129013
 6  11.22173290029003 -0.19381853995400  2.51889233023302
 6  10.70029947094710 -2.34333481458146  1.41577969796980
 6 -11.79420161416142 -0.87486931493149  2.26876545654565
 6 -12.65602630463046 -2.36151159415942  0.42325422942294
 6  9.55169999599960  0.16269730663066  0.02088876887689
 6 -10.08390975797580 -1.00044412941294 -0.48025670667067
 6  11.23836660166017  0.41871633653365 -2.43679788678868
 6 -10.61015345434543  1.74812519651965 -1.76154546154615
 6  9.23957392439244  1.45469890779078 -0.04679005300530
 6 -8.78438892389239 -0.52651620862086 -0.32178322432243
 6  7.93226921292129  2.18061780168017  0.05395106410641
 6 -7.63592873487349 -1.22039637273727 -0.63720905290529
 6  7.99221970297030  3.57831603650365  0.43455482148215
 6 -7.79886099209921 -2.69244899299930 -1.09041921692169
 6  6.88346375337534  1.41514150805080 -0.15108511451145
 6 -6.45339714271427 -0.66261173627363 -0.45748875487549
 6  5.56091664366437  1.86063377027703  0.06046096209621
 6 -5.10822194419442 -1.14302417851785 -0.59933210721072
 6  4.38779271027103  1.13680909480948 -0.19346497549755
 6 -3.99990541054105 -0.44698090419042 -0.33633096309631
 6  3.11231383638364  1.57969856775678  0.03717538253825
 6 -2.59131289528953 -0.90425475557556 -0.38626628662866
 6  2.79747002800280  2.91376082498250  0.53225593459346
 6 -2.25249074307431 -2.40737803990399 -0.65159619961996
 6  2.04230380538054  0.72286945084508 -0.18168729372937
 6 -1.66592791579158  0.09197890379038 -0.15494732173217
 6  0.67703487248725  0.84611937983798  0.09401528152815
 6 -0.22761163016302 -0.10108221332133 -0.18414605460546
 1  13.48485775777578 -0.30197363246325  1.32225706370637
 1  13.17521275727573 -2.02083266436644  1.93453358535854
 1 -14.34452722972297 -0.44077423442344  1.56103330933093
 1 -14.10828219521952 -0.46703362636264 -0.10621224122412
 1  12.89739494149415 -2.63104784788479 -0.44100216521652
 1 -13.04368982998300  1.73143766176618  1.69950942394239
 1  13.90207113911391  0.09731701160116 -1.22053793779378
 1  13.12441393439344 -1.38504073117312 -2.20985166116612
 1 -13.54294983898390  1.58679000000000 -1.31193912691269
 1 -12.78094670167017  2.77103916791679 -0.41588847184718
 1  11.65511413141314 -0.84199492559256  3.33465812681268
 1  10.09371523652365 -0.10761027112711  2.66780566156616
 1  11.73531280128013  0.97054678757876  2.51349048404840
 1  10.99907891089109 -2.76388696879688  0.46388177417742
 1  11.06588750575058 -2.97725264236424  2.20986091009101
 1  9.63035903690369 -2.15599659275928  1.27290223322332
 1 -11.40040694069407  0.09759533053305  2.60478437143714
 1 -11.10986549554956 -1.64676183118312  2.20350635463546
 1 -12.49240039903991 -1.33035394039404  3.12005460146015
 1 -13.54659444044404 -2.61302255425543  0.92293680268027
 1 -11.87083013101310 -3.05838786678668  0.55224028002800
 1 -13.00840119811981 -2.29533984198420 -0.52696117011701
 1  8.92166399039904 -0.49566788688869  0.43802798679868
 1 -10.15328506050605 -2.16813053705371 -0.61356098909891
 1  10.02346476547655  0.81474157205721 -2.36985168816882
 1  11.72269070407041  1.24816910781078 -3.03432314631463
 1  11.16990122512251 -0.48591907900790 -3.19885701570157
 1 -11.32938394539454  2.03385661466147 -2.53849534253425
 1 -9.83642918191819  1.05576621362136 -2.13502810881088
 1 -10.13766552155216  2.51907052005200 -1.32370596659666
 1  14.92213876687669 -2.56665557065707  0.61514340734073
 1 -15.12007144214421  1.97259217321732  1.72829103410341
 1  10.13680916291629  2.20224352825282 -0.40218953395340
 1 -8.74894159115911  0.36163826182618  0.16670185718572
 1  8.53661652365236  4.14815466836684 -0.40805710871087
 1  7.16430981998200  3.93812922182218  0.91756758975898
 1  9.00138484848485  3.52231511841184  1.27885090309031
 1 -8.12817984798480 -3.27325425452545 -0.35212105110511
 1 -8.48790454645465 -2.79491850595060 -1.93751008100810
 1 -6.97711656065607 -3.28139179127913 -1.24626141814181
 1  6.98358002100210  0.43720746364636 -0.40637402940294
 1 -6.37773803580358  0.45019485938594  0.19119674267427
 1  5.30039942394239  2.98220336823682  0.32052430743074
 1 -4.81363518351835 -2.09914122122212 -0.89177657765777
 1  4.59981308030803  0.07909615551555 -0.19970838183818
 1 -4.25328083208321  0.35669078597860 -0.09103630763076
 1  3.41247903290329  3.30077411931193  1.55045124612461
 1  1.81420807380738  3.22527119801980  0.87697010501050
 1  3.15532955495550  3.56749458335834 -0.35401589758976
 1 -2.97121925892589 -3.03545069216922 -0.09116216021602
 1 -2.37794730273027 -2.49094021412141 -1.74345831283128
 1 -1.21327812681268 -2.56195637073707 -0.40381341734173
 1  2.36277343534353 -0.34685333643364 -0.30858876287629
 1 -1.92505190619062  1.11887180508051  0.07048043504350
 1  0.13927967496750  1.74553725962596  0.25064085908591
 1  0.11305407540754 -1.21110106020602 -0.30662824682468

