%NProcShared=4
%Mem=4GB
%Chk=zeaxanthin-s1-freq.chk
#n CAM-B3LYP/6-31G(d,p) Freq=savenormalmodes

 zaxanthin-s1-freq

0 1
O         14.69475       -2.26067       -0.23077
O        -14.74936        1.88695        1.00469
C         11.17654       -1.46448        0.98839
C        -12.34836       -1.04382        0.61356
C         12.66434       -1.84704        1.05108
C        -13.68281       -0.27980        0.67188
C         13.31961       -1.91678       -0.31455
C        -13.50707        1.20339        0.93749
C         10.95673       -0.27373        0.03293
C        -11.28636       -0.24993       -0.17324
C         13.24509       -0.55515       -0.97246
C        -12.72562        1.80993       -0.20647
C         11.89131        0.10617       -0.87357
C        -11.49405        1.02371       -0.58004
C         10.73959       -1.09559        2.41616
C         10.34380       -2.67232        0.51610
C        -11.83194       -1.31308        2.03869
C        -12.63505       -2.39778       -0.06262
C          9.64759        0.36047        0.16040
C        -10.04428       -0.98258       -0.43715
C         11.69120        1.20826       -1.88010
C        -10.56712        1.79523       -1.48110
C          9.36095        1.68757        0.08360
C         -8.78603       -0.49051       -0.34898
C          8.05895        2.29017        0.19225
C         -7.56966       -1.22672       -0.58831
C          7.98216        3.76145        0.50816
C         -7.66703       -2.66423       -1.01315
C          6.90029        1.56059        0.02485
C         -6.37303       -0.57738       -0.41075
C          5.59286        2.05762        0.18031
C         -5.06454       -1.08927       -0.58122
C          4.46214        1.28806       -0.02915
C         -3.93703       -0.32776       -0.37185
C          3.12509        1.70609        0.10884
C         -2.59544       -0.74921       -0.51645
C          2.83433        3.12308        0.52342
C         -2.31232       -2.16508       -0.93774
C          2.10911        0.77936       -0.14320
C         -1.58040        0.17111       -0.26049
C          0.73171        0.97186       -0.06328
C         -0.20130       -0.02400       -0.34030
H         13.21420       -1.10590        1.64311
H         12.76501       -2.80786        1.57316
H        -14.32027       -0.73558        1.44079
H        -14.21505       -0.38128       -0.28144
H         12.78993       -2.64693       -0.94442
H        -12.94568        1.35018        1.87266
H         14.00413        0.08422       -0.49819
H         13.54443       -0.63643       -2.02269
H        -13.39791        1.88940       -1.07257
H        -12.44027        2.83980        0.03964
H         10.97311       -1.91571        3.10304
H          9.66673       -0.90201        2.48245
H         11.26258       -0.20133        2.76614
H         10.63737       -3.00226       -0.48317
H         10.46997       -3.51357        1.20560
H          9.27683       -2.43692        0.48279
H        -11.68314       -0.38506        2.59703
H        -10.87161       -1.83456        2.01216
H        -12.54107       -1.93580        2.59420
H        -13.49551       -2.87304        0.41869
H        -11.79765       -3.09411        0.02102
H        -12.87141       -2.26808       -1.12258
H          8.83097       -0.30589        0.42879
H        -10.15235       -2.03936       -0.66198
H         10.63708        1.40330       -2.07941
H         12.14171        2.15057       -1.54392
H         12.18330        0.95145       -2.82311
H        -11.15599        2.38436       -2.19279
H         -9.89022        1.14981       -2.04033
H         -9.95816        2.51346       -0.91844
H         14.75872       -3.13673        0.16720
H        -15.25307        1.51700        1.73904
H         10.19081        2.38092       -0.01825
H         -8.65264        0.54399       -0.04374
H          8.97313        4.21618        0.54159
H          7.38613        4.30139       -0.23654
H          7.50740        3.93932        1.48162
H         -8.17206       -3.26342       -0.24711
H         -8.25629       -2.75997       -1.93111
H         -6.69228       -3.11460       -1.19566
H          6.99145        0.51785       -0.27125
H         -6.43024        0.46505       -0.09875
H          5.47295        3.09328        0.48491
H         -4.94529       -2.12322       -0.88850
H          4.61807        0.25254       -0.32932
H         -4.08596        0.70628       -0.06281
H          3.24372        3.33110        1.51759
H          1.76739        3.34018        0.55398
H          3.29620        3.83375       -0.16942
H         -2.73885       -2.87708       -0.22335
H         -2.76287       -2.37938       -1.91258
H         -1.24615       -2.37450       -1.01457
H          2.43637       -0.21719       -0.43788
H         -1.90377        1.16756        0.03907
H          0.34701        1.94573        0.22990
H          0.18215       -0.99836       -0.63326

