--Link1--
%CPU=0-6
%Mem=7GB
%OldChk=pheo-a-s0-01288.chk
%Chk=pheo-a-s0-tunado.chk
# wB97XD/Def2TZVP Geom=Checkpoint Guess=Read iop(3/107=0128800000,3/108=0128800000) Opt

pheo-a-s0-tunado

0 1

--Link1--
%CPU=0-6
%Mem=7GB
%OldChk=pheo-a-s0-tunado.chk
# wB97XD/Def2TZVP Geom=Checkpoint iop(3/107=0128800000,3/108=0128800000) Sp

pheo-a-s0-sp

1 2
