%nproc=3
%Mem=2GB
# td=(NStates=1) CAM-B3LYP/6-31G(d,p) 

TD

0 1
<<<<<<< HEAD
 8 -11.88538520612061  0.20729137753775 -1.56880404400440
 8 -13.04960579637964 -2.55511381938194  1.37293297829783
 8  10.50765628552855 -1.03030291819182 -2.07643136943694
 8  14.47646101280128 -1.12288100960096 -0.23305779317932
 6 -11.00787895509551 -0.16719067376738 -0.38376780118012
 6 -11.65286157585759 -1.13525470537054 -1.23516235653565
 6 -11.81496353935393  0.30374705750575  0.95666532153215
 6 -12.92020722442244 -1.82089224712471 -0.92426406040604
 6 -13.26764522252225 -0.18812626022602  0.91603629152915
 6 -13.52043847734774 -1.58542007980798  0.49422819011901
 6 -10.76555214391439 -1.96675209270927 -2.25381770007001
 6 -9.57265670947095  0.13515064886489 -0.45642260036004
 6 -10.96694267166717 -0.16222181818182  2.23332839993999
 6 -11.86854723502350  1.80670577367737  0.93545163686369
 6 -8.62839626132613 -0.66799484068407  0.10201894089409
 6 -7.22474046364636 -0.51410325642564  0.19915761606161
 6 -6.41270528542854 -1.65057374617462  0.63228546484648
 6 -6.60567622932293  0.69677050695070 -0.10540909610961
 6 -5.21601154275428  0.97734977167717 -0.30357468766877
 6  11.93757300420042  0.01176120562056  1.41970149824983
 6  11.68910620072007 -0.63624978017802 -1.25647952765277
 6  12.64683191129113 -1.30058428812881  1.47512224562456
 6  13.27345203190319 -1.85707024042404  0.26032999739974
 6  12.32899783448345 -1.89552406140614 -0.88138210071007
 6  11.11284817271727  0.05629037693769  0.00728790909091
 6  11.06815822072207  0.26485312731273  2.55846818701870
 6  12.98315143184318  1.17143036383638  1.31417446844684
 6  12.55907221342134  0.38144701800180 -2.08752270007001
 6 -4.69010550625062  2.27744025002500 -0.40108495739574
 6  9.83886507400740  0.48144894769477 -0.04955613231323
 6 -3.35877103550355  2.54269302300230 -0.43186344704470
 6  8.66471625762576  0.93951028482848 -0.03237757775778
 6 -3.05270695579558  4.05487694719472 -0.73067279937994
 6 -2.28127504260426  1.74164601330133 -0.23180571527153
 6  7.45403494599460  0.10693128112811 -0.00829001310131
 6  7.76520125662566 -1.40459741184118  0.16481640454045
 6  6.27874922292229  0.71793872417242  0.01307737173717
 6 -0.97567169866987  1.95154427812781 -0.25284345944594
 6  4.89842144494449  0.14093320942094  0.07426879567957
 6  0.11884836383638  0.99894320422042 -0.09216831963196
 6  3.76726613431343  0.86676702710271 -0.21594906390639
 6  1.45202714351435  1.31610333803380 -0.12702508340834
 6  2.53295119561956  0.31785108480848  0.01139449734974
 6  2.26113597529753 -0.97793197349735  0.40635922952295
 1 -12.71494329512951 -3.12145512331233 -0.91308653265327
 1 -13.55691091479148 -1.46508049224922 -1.68259471417142
 1 -13.83704150635064  0.08134520332033  1.98525120782078
 1 -13.91072046564656  0.46958208530853  0.22812047764776
 1 -14.53581088518852 -1.85293400680068  0.29044064836484
 1 -10.20639925682568 -2.92078886168617 -1.85079037443744
 1 -11.09073928282828 -2.30923571497150 -3.11546983318332
 1 -10.05000718421842 -1.22779198779878 -2.60635224772477
 1 -9.17871652645265  0.99948207920792 -0.94506831693169
 1 -9.95305663326333  0.35481674577458  2.16402214501450
 1 -11.51433679457946  0.40261696329633  3.14366271637164
 1 -11.03271396509651 -1.21511838833883  2.32166295599560
 1 -12.39697223972397  2.23382950495050  0.09786300230023
 1 -12.34863110251025  2.25165074057406  1.69789350115012
 1 -10.85618590069007  2.27255784628463  0.92955724922492
 1 -11.99941301380138 -2.57925079867987  1.33663814271427
 1 -9.12442328422842 -1.49234759245925  0.72742184108411
 1 -6.10936038213821 -2.28386171127113 -0.22589063346335
 1 -5.51460387568757 -1.58764399699970  1.25906430263026
 1 -7.19525963656366 -2.63499577257726  1.10809696049605
 1 -7.31981329242924  1.32645097419742 -0.37314699119912
 1 -4.61916856155616 -0.05873725532553  0.01962818711871
 1  13.28080375747575 -1.29176086348635  2.29699464006401
 1  11.94615979297930 -2.09195857585759  2.06202220192019
 1  13.49275163206321 -2.97550921592159  0.48478540444044
 1  12.77808524702470 -2.35339181768177 -1.84956805150515
 1  11.50620062826283 -2.63568269216922 -0.65120046214621
 1  11.59280888908891  0.13427379407941  3.43504854355436
 1  10.59111608930893  1.17860342344234  2.73866139033903
 1  10.23579120032003 -0.52428074257426  2.64714095529553
 1  13.55605250715072  0.70429905410541  0.53672773757376
 1  12.42930554375438  2.06317575537554  0.91862656835684
 1  13.42684852195219  1.43378785788579  2.30378686028603
 1  13.06503732323232 -0.14668127772777 -3.00149260116012
 1  11.81712878127813  1.29101119201920 -2.32761069596960
 1  13.34953578617862  0.54379043194319 -1.47317280268027
 1 -5.37103932783278  3.08337272407241 -0.61383279407941
 1  10.16471772237224 -0.13198185578558 -2.11895423122312
 1  14.91129397459746 -0.93749356375638  0.48661726102610
 1  8.31453330413041  2.08475080228023 -0.08718599579958
 1 -2.38483356755676  4.34730117981798  0.08144397409741
 1 -2.52008077237724  4.15114233903390 -1.58377148624862
 1 -3.97280366546655  4.68767694949495 -0.65430523202320
 1 -2.75874549464947  0.76589880188019  0.18194523992399
 1  6.86339908980898 -1.91702126422642  0.33538602330233
 1  8.40128534303430 -1.72629735453545 -0.72796357045704
 1  8.33398331993199 -1.50243257165717  1.02411617251725
 1  6.17673282038204  1.82676648204821 -0.30790280998100
 1 -0.50122147914791  2.82467651115111 -0.71895180668067
 1  4.85487147354735 -0.82908940564056  0.36912959405941
 1 -0.39231815501550  0.03085127222722  0.26139875097510
 1  3.86130529842984  2.01479711591159 -0.42970519551955
 1  1.59207608280828  2.39694548644864 -0.27363006140614
 1  1.22163099789979 -1.02746935113511  1.18170716631663
 1  2.15444676947695 -1.75129143064306 -0.58535630563056
 1  3.39780647704770 -1.30954518351835  1.06137942454245
=======
>>>>>>> 6a1b998aacd80a23911c140f266e48a14f2d523d

