%nproc=3
%Mem=2GB
# td=(NStates=1) CAM-B3LYP/6-31G(d,p) 

TD

0 1
 8 -11.61604827242724  0.23787443584358 -1.60786795039504
 8 -12.84443527932793 -2.54069237723772  1.37056274127413
 8  10.53447896779678 -1.11707159505951 -2.14302802910291
 8  14.48948231493149 -0.95374409590959 -0.19809429682968
 6 -11.00265843304330 -0.05948990369037 -0.40510993539354
 6 -11.59755604530453 -1.15338651855186 -1.35842468276828
 6 -11.81084312731273  0.44171085388539  0.85736539153915
 6 -13.00245544924493 -1.85995615351535 -1.00867250125012
 6 -13.26027448544855 -0.04990243784378  0.85064975287529
 6 -13.44580101360136 -1.56911844964496  0.48283705100510
 6 -10.80228581728173 -1.86237165466547 -2.33320563886389
 6 -9.50968041184118  0.19152628642864 -0.35348230633063
 6 -11.11704768216822  0.03588799279928  2.24856992409241
 6 -11.85048542884288  1.96126122922292  0.80771886358636
 6 -8.66360978267827 -0.56986502770277  0.17607634663466
 6 -7.20266825642564 -0.59255110121012  0.20644834513451
 6 -6.36866088098810 -1.75302399119912  0.60838307460746
 6 -6.52263792549255  0.61719254915492  0.01975342014201
 6 -5.16709665126513  0.84802683938394 -0.10255458565857
 6  11.88877812471247  0.01650167966797  1.30922045014501
 6  11.62329962006201 -0.70043619881988 -1.30646452615262
 6  12.69737696579658 -1.31664589428943  1.39411414481448
 6  13.45148983568357 -1.72336687008701  0.15399936433643
 6  12.49643457815782 -1.84202871187119 -0.99969393189319
 6  11.03553044094409  0.02272702060206 -0.08091091079108
 6  11.01137254215421  0.17809445144514  2.56431877207721
 6  12.81519463616362  1.20055327612761  1.23566661766177
 6  12.43986029222922  0.39809868316832 -2.11141508930893
 6 -4.70885738143814  2.11619412541254 -0.41844669356936
 6  9.83978516601660  0.61763256605661 -0.08079925662566
 6 -3.43673883228323  2.48068682238224 -0.46966722742274
 6  8.64966475247525  0.96903323712371 -0.10954529452945
 6 -3.06637832293229  3.94452591209121 -0.70864059615962
 6 -2.35549246434643  1.58579042774277 -0.24684721942194
 6  7.49860940344034  0.16635722372237  0.08286910281028
 6  7.58352308880888 -1.26693364546455  0.27498742164216
 6  6.20925227322732  0.67946487678768  0.00073613761376
 6 -0.97525165666567  1.89315843954395 -0.19178735383538
 6  4.91185278807881  0.14092320842084  0.01205257405741
 6  0.01705818481848  0.95095840574057 -0.01697079987999
 6  3.74232364006401  0.80090044044404 -0.06775424442444
 6  1.37475941674167  1.15623735143514  0.11473909300930
 6  2.43335123562356  0.27493679337934  0.20999435733573
 6  2.22156201790179 -1.17299147944794  0.62452104570457
 1 -12.93913571437144 -3.11221419921992 -1.20786601060106
 1 -13.70154537823782 -1.33943792799280 -1.61466792149215
 1 -13.54392219441944 -0.09038196939694  1.90908359105911
 1 -13.96487588118812  0.56498162526253  0.18935660126013
 1 -14.44571187528753 -1.92817153055306  0.51964356865687
 1 -10.59905852275227 -2.90126690949095 -1.91447674307431
 1 -11.39655986488649 -2.13474826622662 -3.34130241644164
 1 -9.63137532103210 -1.36533574217422 -2.46808842134213
 1 -9.26304495929593  1.20493262426243 -0.72349615971597
 1 -10.06089741734174  0.48995025912591  2.29013475627563
 1 -11.51669703060306  0.62408911051105  3.22029037913791
 1 -11.01797249094910 -0.98769564606461  2.49343013271327
 1 -12.00981352385238  2.29241536353635 -0.16319310331033
 1 -12.36846308570857  2.52786836233623  1.50062377417742
 1 -10.72302258435844  2.21494208470847  0.74249854335434
 1 -12.02634570707071 -2.94704757835784  0.97617209610961
 1 -8.78824966686669 -1.73955231293129  0.37875697459746
 1 -5.71398084418442 -2.02844616971697 -0.41120916531653
 1 -5.58082049734973 -1.49778501110111  1.34759315551555
 1 -6.89290940154015 -2.65894816781678  0.76503265406541
 1 -7.16956826792679  1.51423975307531  0.03172349584959
 1 -4.52290893559356 -0.01143252485248  0.13031925622562
 1  13.77141281838184 -0.88629031643164  2.09164410501050
 1  12.15908108510851 -2.16346572657266  2.02239823952395
 1  13.83821617851785 -2.84865653065307  0.31068799469947
 1  12.95533297179718 -2.19459593809381 -1.82202529722972
 1  11.85440544874488 -2.81534065796580 -0.67554289638964
 1  11.66597620582058  0.22822318901890  3.41952699139914
 1  10.39841681938194  1.03292885598560  2.36045356955696
 1  10.33764138533853 -0.63446176067607  2.67092333353335
 1  13.49781668356836  1.09139776397640  0.67661172597260
 1  12.16702931613161  2.11092052985299  0.97653235893589
 1  13.12465830293029  1.52207668676868  2.26302278387839
 1  12.66340716021602 -0.09139574917492 -3.12999545144514
 1  11.96512358075807  1.33006509740974 -2.27487542244224
 1  13.19593042564256  0.60044609750975 -1.62471795719572
 1 -5.64419664356436  2.66550093689369 -0.81816322712271
 1  10.12999425002500 -0.22281093869387 -2.35496783258326
 1  15.00359320452045 -0.93368318271827  0.55424402370237
 1  8.34250610141014  1.99784211141114 -0.45743302050205
 1 -2.47897298149815  4.35605205490549  0.12601843154315
 1 -2.49179794409441  4.03268049284928 -1.70837394649465
 1 -3.98189457455746  4.52749093089309 -1.10562036353635
 1 -2.52805242534253  0.49775198719872 -0.00292324692469
 1  6.66942969286929 -2.05556511861186  0.14768725342534
 1  8.22815803030303 -1.68124284908491 -0.39858063216322
 1  8.18372829442944 -1.50210253865387  1.29883364426443
 1  6.11167631473147  1.63579738513851 -0.44261628132813
 1 -0.60263162016202  3.11077512101210 -0.24282419391939
 1  4.95498148454845 -0.87370386708671  0.54576725782578
 1 -0.24540346354635 -0.01324313721372  0.10001261236124
 1  3.70744991289129  1.83420905710571 -0.26143836883688
 1  1.64914178937894  2.09204499639964 -0.25311801020102
 1  1.21031986678668 -1.56347295149515  0.94133312891289
 1  2.39232055685569 -1.94708100960096 -0.09406717671767
 1  2.76691338773877 -1.65504973397340  1.53921720832083

