%nproc=3
%Mem=2GB
# td=(NStates=1) CAM-B3LYP/6-31G(d,p) 

TD

0 1
<<<<<<< HEAD
 8 -11.98147481508151  0.34669531793179 -1.32051921552155
 8 -13.01687252305230 -2.45433374137414  1.56305199019902
 8  10.82453797369737 -1.06729661756176 -2.02061578787879
 8  14.56290965766577 -0.63878259975998  0.10120563316332
 6 -11.09409757695770 -0.11922587728773 -0.17248667306731
 6 -11.75307159685969 -1.07937911781178 -1.16683552385239
 6 -11.76888893189319  0.26157284008401  1.14599425442544
 6 -13.07092229592959 -1.64744490239024 -0.86112774677468
 6 -13.28883734173417 -0.06899434703470  1.08644333223322
 6 -13.64746117961796 -1.52676421422142  0.56154492179218
 6 -10.95882147084708 -1.74306972447245 -2.16820913921392
 6 -9.58596804060406  0.23411054485449 -0.47606456455646
 6 -11.12044802220222 -0.33206880288029  2.37152221932193
 6 -11.63348372867287  1.92519762286229  1.16461455315532
 6 -8.66568999069907 -0.63499154035404  0.03622236123612
 6 -7.27158514811481 -0.55574742084208 -0.02506480618062
 6 -6.41377539243924 -1.81735042384238  0.29739197549755
 6 -6.63471913361336  0.71989281918192 -0.28973752895290
 6 -5.19431937353735  0.81574361106111 -0.28430276047605
 6  11.95243449034903 -0.02004197469747  1.48075760386039
 6  11.80649793989399 -0.49180533573357 -1.08426230593059
 6  12.69495672377238 -1.27688191789179  1.52271700510051
 6  13.48623331003100 -1.63217775117512  0.30825478987899
 6  12.54665960066007 -1.77696220522052 -0.86546050855086
 6  11.13981086898690 -0.05029028112811  0.10848802910291
 6  10.99183058795879 -0.02609596759676  2.57054939513951
 6  12.80527364406441  1.22313553435344  1.53466651765177
 6  12.64780108630863  0.52130100340034 -1.83537748554855
 6 -4.70333682938294  2.05604811081108 -0.52626747564756
 6  9.91047223472347  0.31651245404540  0.01489031233123
 6 -3.35721087948795  2.48775752945295 -0.61516177687769
 6  8.62238202420242  0.83186952075208 -0.16196053605361
 6 -3.16174785988599  4.03019447894789 -0.78806853895390
 6 -2.29129604470447  1.56995884458446 -0.46710924562456
 6  7.52238178067807  0.05452604060406 -0.11084026812681
 6  7.66477121362136 -1.37224417651765  0.13368329122912
 6  6.22668401640164  0.66612354265427 -0.30011394739474
 6 -0.91739587108711  1.87073619731973 -0.47148532363236
 6  4.92627423022302  0.09181829792979 -0.17684631583158
 6  0.11071755075508  0.85642895279528 -0.33306240904090
 6  3.78518792649265  0.76969732013201 -0.25406287528753
 6  1.35334727552755  1.21226295399540 -0.37089947084708
 6  2.47237513801380  0.18085738543854 -0.12104874697470
 6  2.24801466316632 -1.14449863016302  0.26085467906791
 1 -13.08916071687169 -2.81167414521452 -1.13247847184718
 1 -13.77886311001100 -1.16047003120312 -1.64147060176018
 1 -13.70281808400840 -0.07755068626863  2.23708639133913
 1 -13.90051944554455  0.59805493259326  0.48955662126213
 1 -14.59804710881088 -1.76187490089009  0.52836444074407
 1 -10.57382599949995 -2.59059584238424 -1.66806210161016
 1 -11.73172338123812 -2.09614440584058 -2.89398768496850
 1 -10.03775595909591 -1.25066427502750 -2.42560417291729
 1 -9.37709636443644  1.00028215921592 -1.22577638773877
 1 -10.16982831043104  0.10157142124212  2.68120386318632
 1 -11.64292965386539 -0.16437973637364  3.17997634773477
 1 -10.99489018271827 -1.52222909940994  2.21357214691469
 1 -12.47817035953595  2.36978310031003  0.46550976697670
 1 -12.01477771717172  2.29482505800580  2.08110182198220
 1 -10.62841312341234  2.23019360986099  1.36644093759376
 1 -12.07439051155115 -2.39654252785279  1.30062454135414
 1 -9.10861170307031 -1.50440879857986  0.44553365226523
 1 -5.49737918401840 -1.83700702580258 -0.46112415681568
 1 -5.85547796309631 -1.65591082368237  1.21807020322032
 1 -6.94742485308531 -2.83770604360436  0.17633378417842
 1 -7.25153646474647  1.60439876897690 -0.49802947944794
 1 -4.51523816851685  0.00192881128113 -0.26410018571857
 1  13.63250892799280 -1.07701938933893  2.22134707530753
 1  12.13671884888489 -2.11238061806181  2.10282628232823
 1  13.90809316621662 -2.65970763576358  0.77681460736074
 1  12.97626506500650 -2.30398687718772 -1.94774786948695
 1  11.73671367956796 -2.49152827672767 -0.61083642574257
 1  11.39722933113311 -0.31693132643264  3.61453649234923
 1  10.24756173387339  0.88828439153915  2.50095761996200
 1  9.99551717291729 -0.76666498099810  2.40011625282528
 1  13.43375027692769  1.20626925112511  0.58707277207721
 1  12.16089870307031  2.13821325912591  1.38319302500250
 1  13.32847868496850  1.35292977207721  2.40944742634263
 1  12.92294311381138 -0.09089569916992 -2.67477992989299
 1  11.99876694509451  1.40486257715772 -2.17108504340434
 1  13.57155798839884  0.94445049794980 -1.20292577797780
 1 -5.46040826472647  2.86189057585759 -0.65326673747375
 1  10.15592684328433 -0.44950360796080 -2.01717405320532
 1  15.02837568276828 -0.27764757915792  0.91003960326033
 1  8.31490334113411  1.92456478367837 -0.17291456865687
 1 -2.53854893909391  4.45001145084508 -0.14051822212221
 1 -2.66289505380538  3.94589181398140 -1.66541965106511
 1 -4.04479086418642  4.64550273207321 -0.87161696319632
 1 -2.63792341244124  0.68069028102810 -0.06534948954895
 1  6.71483423332333 -1.97872743484348  0.00654313901390
 1  8.68521373587359 -1.56312103690369 -0.43498427252725
 1  7.65895581718172 -1.57574990339034  1.22034579547955
 1  6.33420856795680  1.73646745214521 -0.66992901260126
 1 -0.61899325632563  2.90786482998300 -0.89893980548055
 1  4.92180816721672 -1.09610610731073 -0.11375869476948
 1 -0.34512343554355 -0.14879669256926 -0.10764815371537
 1  3.82537170507051  1.96326196239624 -0.39682190719072
 1  1.84625150035004  2.01737752965297 -0.89294199259926
 1  1.06927576237624 -1.48712531673167  0.39628862446245
 1  2.35593691849185 -1.82221852335234 -0.67716548654866
 1  3.06760345674567 -1.70203443244324  0.93337662426243
=======
>>>>>>> 6a1b998aacd80a23911c140f266e48a14f2d523d

