%nproc=3
%Mem=2GB
# td=(NStates=1) CAM-B3LYP/6-31G(d,p) 

TD

0 1
 8 -11.73047971557156  0.30848149654966 -1.64717188078808
 8 -13.23224406020602 -2.39555786378638  1.46126181118112
 8  10.81145666556656 -0.98909879777978 -2.13088681498150
 8  14.61074444114411 -0.91302002350235 -0.06256074347435
 6 -11.10894906210621 -0.08836279097910 -0.43221264566457
 6 -11.71434772447245 -1.07630881078108 -1.24826366666667
 6 -11.88958100110011  0.43865054785479  0.84614426942694
 6 -13.11963716741674 -1.67201735963596 -0.87052868686869
 6 -13.25915437343734 -0.03358080568057  0.85277996589659
 6 -13.57732416591659 -1.44266580438044  0.54900366766677
 6 -10.79643523222322 -1.97426284378438 -2.08562088038804
 6 -9.62729217301730  0.01867900170017 -0.37736469456946
 6 -11.21539751715171 -0.15607120312031  2.10255532263226
 6 -11.58257863816381  1.95872097519752  0.98350644234423
 6 -8.72184560626063 -0.70712875407541  0.22608134713471
 6 -7.25951394099410 -0.54669651575158  0.19072677297730
 6 -6.42465648054805 -1.78961765056506  0.51205344164416
 6 -6.60623628532853  0.65625645554555 -0.01711026622662
 6 -5.27538748034804  0.89225126182618 -0.14089842004200
 6  11.88113736063606 -0.00380035053505  1.36114564266427
 6  11.84357164726473 -0.52138829402940 -1.25671955165517
 6  12.63164039213921 -1.21318554825483  1.59586431983198
 6  13.40487517421742 -1.71848638203820  0.31220518491849
 6  12.57729266396640 -1.81036554555456 -0.97785174767477
 6  11.13568045594559 -0.03560881298130  0.03562074237424
 6  10.93545495039504  0.20055669766977  2.54651699189919
 6  12.81666478317832  1.21492471327133  1.35934898589859
 6  12.65396170237024  0.54624349764976 -1.97825177297730
 6 -4.72132862856286  2.13275578157816 -0.57893274217422
 6  9.87052824032403  0.31287209000900 -0.02324350105010
 6 -3.37279243764376  2.44043279697970 -0.42170243094309
 6  8.70886067206721  0.82147848164816 -0.26537087708771
 6 -2.99678136323632  3.90234169366937 -0.69603933603360
 6 -2.47674458955896  1.45251710041004 -0.04712724742474
 6  7.46235577807781  0.12299288728873 -0.07716690079008
 6  7.66541127762776 -1.33878083018302 -0.02399247634764
 6  6.30435178317832  0.78426535683568 -0.30553448944895
 6 -1.02374650615062  1.70781990569057 -0.13475165026503
 6  5.04305590839084  0.27305642174217 -0.12173080428043
 6  0.01434791379138  0.85440875077508  0.20227112431243
 6  3.80100950865086  0.80561091149115 -0.27867533653365
 6  1.32813475427543  1.12318404610461 -0.03562594349435
 6  2.55633353385339  0.29157845754575 -0.00592723482348
 6  2.39882974467447 -1.18494267456746  0.36014460806081
 1 -13.32277407820782 -2.80679365716572 -1.11931715571557
 1 -13.77053227692769 -1.19779376357636 -1.58868532323232
 1 -13.74699250145015  0.33999106790679  1.77531021372137
 1 -13.61909130273027  0.76520164726473 -0.04155649004901
 1 -14.67937524162416 -1.55930464386439  0.55814741904190
 1 -10.33642225912591 -2.69148593139314 -1.39918521392139
 1 -11.32622283118312 -2.46634142554255 -2.97991627782778
 1 -9.99946212971297 -1.46297550615062 -2.33566517901790
 1 -9.34835349014902  0.92199433043304 -1.11581539163916
 1 -10.23976530413041  0.21387265136514  2.29653539633963
 1 -11.88708406930693  0.04771147274727  3.02349069916992
 1 -10.94600529422942 -1.30614749124912  2.18829961966197
 1 -11.82686522902290  2.21489761176118  0.02451566756676
 1 -12.20664690409041  2.25276085158516  1.71329504130413
 1 -10.51396167826783  2.14940553105311  1.02522681618162
 1 -12.31926499899990 -2.54534740834083  1.42098657755776
 1 -9.07411825372537 -1.62162051975198  0.58662776167617
 1 -5.68924837093709 -1.89046237133713 -0.48364640904090
 1 -6.18114052935293 -1.85070030263026  1.63785218141814
 1 -7.09499961056106 -2.94963723672367  0.23416956775678
 1 -7.55690700180018  1.20998932803280 -0.40241991849185
 1 -4.54148079277928  0.13541215961596  0.08308453275328
 1  13.22439811691169 -1.07794948234823  2.62111705230523
 1  12.03343852085209 -2.14463384338434  1.77851385108511
 1  13.82672502940294 -2.74605627062706  0.44911183708371
 1  13.22306974547455 -2.21351783028303 -1.69573266796680
 1  11.76430643884389 -2.46968609250925 -0.81834717681768
 1  11.62516212441244  0.02450281698170  3.51102614131413
 1  10.44314129182918  1.20511607470747  2.53448097229723
 1  10.01380900210021 -0.48766708120812  2.58488472967297
 1  13.80304720662066  1.08830745494549  0.74785885068507
 1  12.32490510371037  2.15266470427043  0.95777048274827
 1  13.12363820092009  1.62888736783678  2.48940542214221
 1  13.12545336483648  0.35334872527253 -2.97711016291629
 1  12.27791485988599  1.61658374927493 -2.13708164306431
 1  13.65806663926393  0.66642269516952 -1.07656314171417
 1 -5.31930415431543  3.07315170197020 -0.72179359015902
 1  10.27360861146115 -0.34906356395640 -2.64171650745075
 1  15.10489333453345 -0.91112092649265  0.69521812111211
 1  8.71084293509351  1.93667599479948 -0.84272154935493
 1 -2.43902898709871  4.26699314901490 -0.00144431473147
 1 -2.43329209350935  4.08361558635864 -1.59974308340834
 1 -3.94446083118312  4.38460664246425 -1.01921172267227
 1 -2.86239585968597  0.54985719771977  0.34918196359636
 1  6.71286403630363 -1.86806636873687  0.00320280498050
 1  8.31978719321932 -1.87378210301030 -0.77879865396540
 1  8.35073499509951 -1.58853118151815  0.93532729362936
 1  6.24877002410241  1.86760056545655 -0.33419543924392
 1 -0.69968132513251  2.68244228772877 -0.44791470297030
 1  4.90929691609161 -0.85450194689469  0.20718339943994
 1 -0.11156007920792 -0.35382719561956  0.35751836293629
 1  3.61782094999500  1.92758839503950 -0.49348157315732
 1  1.56512338753875  2.11941773367337 -0.40080277867787
 1  1.34093292809281 -1.49684628882888  0.54184317991799
 1  2.83478480328033 -1.73770007150715 -0.48981675167517
 1  2.87704440084008 -1.49714394339434  1.21014430103010

