%nproc=3
%Mem=2GB
# td=(NStates=1) CAM-B3LYP/6-31G(d,p) 

TD

0 1
<<<<<<< HEAD
 8 -11.65480214781478  0.27709835823582 -1.47692485608561
 8 -12.98276911271127 -2.37873618161816  1.48972465746575
 8  10.61748726862686 -0.94431431933193 -2.18342206850685
 8  14.44250761746175 -1.10951967346735 -0.07887237463746
 6 -10.94010217741774 -0.09362331703170 -0.31302072647265
 6 -11.63394968466847 -1.06565774567457 -1.35564440474047
 6 -11.65432747574757  0.34093077587759  0.91441109610961
 6 -13.09072427612761 -1.70180033793379 -0.88514014801480
 6 -13.14228268626863  0.00947349974998  0.86869155705571
 6 -13.40726716021602 -1.38305984378438  0.62875164246425
 6 -10.74445003370337 -1.84105952345235 -2.22081439973997
 6 -9.43092253605361  0.00047718151815 -0.45581253935394
 6 -10.92424840224022 -0.27854345034503  2.28896396349635
 6 -11.55985636593659  1.90164526762676  1.02980107180718
 6 -8.55277869956996 -0.92884092529253  0.06252499149915
 6 -7.20765875547555 -0.68973081918192  0.14009170947095
 6 -6.26148016291629 -1.84257294609461  0.40965320162016
 6 -6.58356401810181  0.56681751165116 -0.22136069126913
 6 -5.29315925752575  0.87258929562956 -0.13532786298630
 6  11.85033428032803  0.12741277077708  1.31222075017502
 6  11.65889317941794 -0.51551770697070 -1.15471935163516
 6  12.60735796389639 -1.30055428512851  1.43835856925693
 6  13.21341602830283 -1.83357789118912  0.25730969536954
 6  12.38409334403440 -1.92840734973497 -0.91789575207521
 6  10.99916680458046  0.03388813671367  0.05169234953495
 6  10.95103650855085  0.19566620862086  2.51197353755376
 6  12.80823394009401  1.24687790859086  1.50089314031403
 6  12.53962026822682  0.43773264656466 -1.99873382118212
 6 -4.74328082378238  2.09772227822782 -0.44427927682768
 6  9.83564475197520  0.54993579637964 -0.00829200590059
 6 -3.38285344374437  2.53675242894289 -0.55708596929693
 6  8.59161894789479  0.92891922572257 -0.20516485648565
 6 -3.04264594969497  4.02119357885789 -0.78922865496550
 6 -2.37594450955095  1.63675552425242 -0.26468900360036
 6  7.45655519801980  0.09486007400740 -0.00248943304330
 6  7.67559229572957 -1.31303825592559  0.31672159505951
 6  6.19619096709671  0.67124405470547 -0.07655159115912
 6 -0.97020115161516  1.95012413611361 -0.32036021112111
 6  4.92292389518952  0.05286440254025 -0.10005863706371
 6 -0.03744726572657  1.01459476937694  0.03083398059806
 6  3.72122152985298  0.76327667806781 -0.17714518351835
 6  1.32830477127713  1.26735846354635 -0.14118649954995
 6  2.39302720322032  0.29164846454645  0.01231458935894
 6  2.17182704440444 -1.15033921422142  0.40990958455846
 1 -13.21921372217222 -2.79883286108611 -0.98047327132713
 1 -13.80848607230723 -1.31976596079608 -1.58090454515452
 1 -13.61683948614862  0.30095716451645  1.78598128082808
 1 -13.76643603720372  0.74150927802780  0.32283994959496
 1 -14.45539284338434 -1.50581929532953  0.56891849614962
 1 -10.60465908280828 -2.88896567936794 -1.85434072947295
 1 -11.25152536143614 -1.96034082548255 -3.28613689988999
 1 -9.58654083758376 -1.56199540814081 -2.44121573407341
 1 -9.18932758755876  1.11281341234123 -0.77045085518552
 1 -9.81053238083808  0.04639590369037  2.36379212201220
 1 -11.51468682958296  0.18547524912491  3.07492584268427
 1 -11.12156284998500 -1.34938181468147  2.37857864756476
 1 -12.06740928342834  2.24900102210221  0.20491370737074
 1 -12.07325356475648  2.13378895439544  1.91550526232623
 1 -10.52269255135514  2.12593318381838  1.10031432493249
 1 -11.99447251975197 -2.70276314991499  1.16063054195420
 1 -9.08770961286129 -2.01224958265827  0.42866196509651
 1 -5.53092253835384 -1.97187051215122 -0.52308035243524
 1 -5.78156057135714 -1.65138037063706  1.26148454465447
 1 -6.71563167376738 -2.80680295329533  0.53932008280828
 1 -7.39962127322732  1.48878720782078 -0.37425710221022
 1 -4.62176882158216  0.04725334373437  0.07125334963496
 1  13.40101577867787 -1.21953364076408  2.25789072967297
 1  11.88020319731973 -1.90495987598760  2.06990298999900
 1  13.68806116301630 -2.65629729472947  0.57425435133513
 1  12.95205264376438 -2.05627210571057 -1.75926902160216
 1  11.52521252945295 -2.60423954785479 -0.82000734283428
 1  11.36858646684669  0.13740410711071  3.58363340204020
 1  10.14471144884488  0.89268483158316  2.39737726192619
 1  10.34919254045404 -0.67254556905691  2.39022526372637
 1  13.56193309520952  1.17850647484748  0.64204826962696
 1  12.26029864306431  2.26381581938194  1.20111481718172
 1  13.40893673077308  1.41865634473447  2.43389987158716
 1  12.73771459095910 -0.00587719731973 -3.04124657655766
 1  11.90836790519052  1.16105819671967 -2.34963289818982
 1  13.64978581118112  0.62300835373537 -1.58567405280528
 1 -5.26460868476848  2.99494388118812 -0.48368977977798
 1  9.92341359195920 -0.05227388498850 -1.92731506730673
 1  15.07017986318632 -0.78858867326733  0.57485608490849
 1  8.26354820562056  1.91863419061906 -0.40487776497650
 1 -2.67425250945095  4.53886033573357 -0.01992616291629
 1 -2.47672643694369  4.12439966476648 -1.61946505560556
 1 -4.16304268936894  4.47688587038704 -1.17499730123012
 1 -2.56051567166717  0.57517972997300 -0.12884583918392
 1  6.71565431533153 -1.85315487758776  0.33569605430543
 1  8.27771298579858 -1.77633235803580 -0.34225499959996
 1  8.04517443904390 -1.23055538393839  1.13455721662166
 1  6.22269741684168  1.75879968536854 -0.41890391009101
 1 -0.63542489948995  2.91620566406641 -0.55706561806181
 1  4.89895588198820 -1.04975147184718 -0.12318963786379
 1 -0.29664858805881  0.06531471857186  0.32304491559156
 1  3.68674784268427  1.93544918111811 -0.23241546654666
 1  1.83466034123412  2.22513830573057 -0.59868256665667
 1  1.27955679047905 -1.48923552775278  0.62274126972697
 1  2.66081740654065 -1.58905520702070 -0.30390816081608
 1  2.83479017541754 -1.41347557655766  1.32899618621862
=======
>>>>>>> 6a1b998aacd80a23911c140f266e48a14f2d523d

