%nproc=3
%Mem=2GB
# td=(NStates=1) CAM-B3LYP/6-31G(d,p) 

TD

0 1
<<<<<<< HEAD
 8 -11.71637830543054  0.11539218761876 -1.57841500510051
 8 -13.21158199399940 -2.31102941094109  1.53042872787279
 8  10.45211073097310 -0.94315420332033 -2.07855158145815
 8  14.50555392209221 -1.06002472397240 -0.36161064846485
 6 -11.02116028322832 -0.16652060676068 -0.30105953035304
 6 -11.69415570527053 -1.21353253315332 -1.12267110741074
 6 -11.87572961596160  0.42310899369937  0.82785244024402
 6 -13.04802000570057 -1.96766692459246 -0.89073070707071
 6 -13.29879833783378  0.00613316571657  0.70138482638264
 6 -13.57536396989699 -1.46379791759176  0.48931769906991
 6 -10.71453704240424 -2.11911732923292 -1.99535185348535
 6 -9.57260670447045  0.10087722152215 -0.42844980308031
 6 -11.23854983238324  0.09000340434043  2.22674774187419
 6 -11.75243562386239  1.97892299539954  0.69935802750275
 6 -8.58563198489849 -0.84079212041204  0.01175991499150
 6 -7.17677566716672 -0.63164501060106 -0.00497279697970
 6 -6.28955297019702 -1.78227691649165  0.32756499279928
 6 -6.60120578227823  0.61076190609061 -0.19672822802280
 6 -5.25291523312331  0.91975401210121 -0.11502583278328
 6  12.06388563546355  0.04383441294129  1.33960348844884
 6  11.65790308040804 -0.58173432863286 -1.34133801350135
 6  12.67921514961496 -1.39519374907491  1.36414114751475
 6  13.33064775147515 -1.88083261666167  0.00630459485949
 6  12.35505043974397 -1.86519102810281 -1.12752671517152
 6  11.15773266116612  0.04431917981798  0.06661384168417
 6  11.15212661756176  0.20640728272827  2.56005834603460
 6  13.08768188488849  1.28757197799780  1.32533558455846
 6  12.39885619181918  0.47845671897190 -2.08367231503150
 6 -4.74154064976498  2.19551205720572 -0.37744259315932
 6  9.93936512401240  0.51215201800180  0.17936675997600
 6 -3.39351450985099  2.62954170787079 -0.35970623132313
 6  8.75827561356136  1.04569090289029  0.07144280428043
 6 -3.01524320942094  4.04606606610661 -0.53021275337534
 6 -2.31674858995900  1.57257910661066 -0.17671020572057
 6  7.50113965646565  0.17810839883988  0.22388320422042
 6  7.71960669716972 -1.23487043914391  0.38889881278128
 6  6.25879722772277  0.76514344464446  0.18236430043004
 6 -1.00628475997600  1.81027015071507 -0.41509968506851
 6  5.00841244404440  0.07411652775278  0.22675404420442
 6 -0.00269379037904  0.88139144904490 -0.18382748554855
 6  3.81578098579858  0.72539288968897 -0.00499796879688
 6  1.38584052485249  1.19749147684768 -0.14310669156916
 6  2.46854475497550  0.30190949064906  0.10586394429443
 6  2.24105396709671 -1.10819499979998  0.37715630923092
 1 -12.91770357115712 -3.07080005780578 -0.95620084408441
 1 -13.76671189488949 -1.70954493869387 -1.72747920262026
 1 -13.83506130833083  0.31873894269427  1.60218290099010
 1 -13.95500489408941  0.83147827492749  0.02671033663366
 1 -14.60404770887089 -1.38779749314931  0.46601820612061
 1 -10.47841645854585 -3.09721650445044 -1.49614490989099
 1 -11.23118332723272 -2.40425521692169 -2.98780706690669
 1 -9.83428561206121 -1.64741394999500 -2.10575218771877
 1 -9.10411906670667  0.99039117011701 -0.84695850595059
 1 -10.17909923752375  0.25012627672767  2.32446818961896
 1 -11.60813617451745  0.66552325392539  2.97148549864986
 1 -11.45743643734373 -0.94682155865587  2.57664845454546
 1 -12.10583312581258  2.22908903090309 -0.34021080508051
 1 -12.26562280168017  2.66257183268327  1.41026473827383
 1 -10.81733201530153  2.36856744724472  0.57303159665967
 1 -12.19179225172517 -2.24187706130613  1.72759723862386
 1 -9.01155199709971 -1.56198455615562  0.39817891679168
 1 -5.68504795089509 -2.12315564066407 -0.64552259665967
 1 -5.49564197949795 -1.32320755335534  0.94916331253125
 1 -6.92553266386639 -2.57518979197920  0.65622177297730
 1 -7.29782109320932  1.41367969706971 -0.38590826732673
 1 -4.55700234493449  0.03082170057006 -0.20934471017102
 1  13.49416509360936 -1.45050673807381  2.17368230883088
 1  11.92260743774377 -2.17509688968897  1.62123812351235
 1  13.65231758865887 -2.86611827682768  0.26389331523152
 1  12.81488892739274 -2.31598807730773 -2.19144223892389
 1  11.49692970117012 -2.59106823072307 -0.80804614671467
 1  11.66861646984698  0.03857422412241  3.38638367706771
 1  10.54622159985998  1.09432499559956  2.59048657285729
 1  10.49374699589959 -0.74807312181218  2.55645188638864
 1  13.82380928282828  1.14984360856086  0.38916298109811
 1  12.57729034223422  2.25169460726073  1.13985869156916
 1  13.55328116521652  1.24900938003800  2.22705918751875
 1  12.88467928742874 -0.04124073367337 -3.05346779867987
 1  11.78128519691969  1.23485557645765 -2.40210814571457
 1  13.20915174777478  0.79401545444544 -1.53866935233523
 1 -5.52760498439844  3.04169855665567 -0.61539295009501
 1  10.15639689028903 -0.08425708330833 -2.63101543734373
 1  14.98271111631163 -0.68475829022902  0.62758135743574
 1  8.34921677247725  2.00195252245224  0.11570429322932
 1 -2.00133521772177  4.21226767646765  0.07681351105110
 1 -2.55832459675968  4.30305753055305 -1.42301541064106
 1 -3.78390477557756  4.76299448124812 -0.36033583508351
 1 -2.71919153925393  0.57602981498150 -0.20121307590759
 1  7.00517326722672 -2.08709827192719  0.18190067476748
 1  8.66983219771977 -1.61472619741974 -0.05650642474247
 1  8.14898482008201 -1.52175450385038  1.23799756065607
 1  6.15134028112811  1.77695150055006  0.05102308260826
 1 -0.81869322632263  3.00228427192719 -0.52097200870087
 1  4.95192117851785 -1.01636813351335  0.43335601670167
 1 -0.15954487768777 -0.17585939883988 -0.23483087198720
 1  4.10526969486949  1.80003563976398 -0.28286051105110
 1  1.65356223142314  2.24557034893489  0.00962826442644
 1  1.22063089788979 -1.46539314351435  0.64988398399840
 1  2.67685901070107 -1.69576587808781 -0.48219598959896
 1  3.20873757015702 -1.54510873987399  1.15296858345835
=======
>>>>>>> 6a1b998aacd80a23911c140f266e48a14f2d523d

