%nproc=3
%Mem=2GB
# td=(NStates=1) CAM-B3LYP/6-31G(d,p) 

TD

0 1
<<<<<<< HEAD
 8 -11.87063373097310  0.16519716811681 -1.54523168676868
 8 -12.92672350815081 -2.48834714271427  1.54194987998800
 8  10.63821934183418 -0.79084897279728 -2.17204093039304
 8  14.48006137283728 -1.20582930443044 -0.09667415481548
 6 -11.07194536173617 -0.15156911161116 -0.32208163256326
 6 -11.72740903060306 -1.26742792269227 -1.16945578587859
 6 -11.82309435243524  0.36772345514551  0.95861551655166
 6 -13.07443264696470 -1.85463562146215 -0.80251188518852
 6 -13.29310776877688 -0.03056050365037  0.92688737663766
 6 -13.56597303080308 -1.58327986578658  0.64075284258426
 6 -11.01471706040604 -1.98886430393039 -2.23319563786379
 6 -9.62958240204020  0.06287342114211 -0.34822178027803
 6 -11.09956593399340 -0.00102569856986  2.28191325842584
 6 -11.78526890719072  1.86737184028403  0.95857394909491
 6 -8.64973839553955 -0.65606364756476  0.13583232223222
 6 -7.22567055665567 -0.56043788988899  0.11037873817382
 6 -6.38379239413941 -1.78957764656466  0.43598583488349
 6 -6.68512417411741  0.67250808070807 -0.17454600980098
 6 -5.23081302290229  0.88446048274827 -0.26291062126213
 6  11.89384863176318 -0.06563653415342  1.45055458355836
 6  11.77186447654766 -0.52639879507951 -1.24119799949995
 6  12.57310453855385 -1.45617984768477  1.52625735913591
 6  13.26215090179018 -1.91149568296830  0.21777574197420
 6  12.31243617831783 -1.90293480248025 -0.94877884038404
 6  11.14248113601360  0.01844659255926  0.10751793209321
 6  10.91461286618662  0.11648829082908  2.62914525472547
 6  12.95417853455345  1.07564078487849  1.48928197919792
 6  12.63528983518352  0.50817969126913 -1.81921586938694
 6 -4.64522101780178  2.16340884688469 -0.49087393629363
 6  9.95836702420242  0.59572037483748  0.05201402470247
 6 -3.26273143154315  2.52755150885089 -0.59984024472447
 6  8.67366715271527  1.01591792559256 -0.25564990499050
 6 -2.95458714381438  3.90860231973197 -0.69853958605861
 6 -2.28047496259626  1.52294414311431 -0.52020455515552
 6  7.50526006850685  0.15702629062906  0.01094191009101
 6  7.66879161566157 -1.25177212931293  0.12313223612361
 6  6.27729907790779  0.78968589888989 -0.17593152915292
 6 -1.01488562006201  1.93034215791579 -0.30359853495350
 6  5.02631423422342  0.18517763386339  0.02319368816882
 6  0.08332481148115  0.94370768066807 -0.19618872167217
 6  3.85623503120312  0.95967631803180 -0.04658212721272
 6  1.42580452125213  1.32546427412741 -0.16126850775078
 6  2.55883378387839  0.43207250695069 -0.05761240334033
 6  2.39727958965897 -0.99038321862186  0.21510010361036
 1 -13.10732253305330 -2.99521249904990 -0.91518674267427
 1 -13.85754097779778 -1.52730671487149 -1.51293774847485
 1 -13.72875067726773 -0.07318024922492  1.91984466716672
 1 -14.04593398699870  0.46786191329133  0.10950861646165
 1 -14.73801110521052 -1.83203191659166  0.74367597189719
 1 -10.76190480738074 -2.81096787958796 -1.69531482688269
 1 -11.52113232213221 -2.16514130553055 -3.06702498869887
 1 -10.15565774927493 -1.45450465906591 -2.38141975447545
 1 -9.54780343514352  0.95448757975798 -0.90947475757576
 1 -10.19286061366137  0.46583784788479  2.34580032283228
 1 -11.66520188108811  0.31889859145915  3.18326667676768
 1 -11.04710540424042 -1.10899777627763  2.46554734443444
 1 -12.41225376787679  2.25323144514451  0.21331454745475
 1 -12.16343258265826  2.46071164666467  1.77272098389839
 1 -10.67665794789479  2.33871446194620  0.59609390289029
 1 -12.05185825832583 -2.62920579417942  1.23652813171317
 1 -8.89254009590959 -1.59420777847785  0.45184428332833
 1 -6.13858330443044 -2.51623494859486 -0.63708175257526
 1 -5.47757017231723 -1.37350258285829  0.92913130933093
 1 -7.12672278287829 -2.42754502750275  1.20658680948095
 1 -7.46988829992999  1.59081741084108 -0.43891356785679
 1 -4.38860550525053  0.11786040444044  0.06832305660566
 1  13.31737741484148 -1.45144683208321  2.37907284788479
 1  11.85858103510351 -2.10613999399940  1.73828982868287
 1  13.59765212211221 -2.99007067206721  0.48631555745575
 1  12.79801724022402 -2.09622610111011 -1.92569566426643
 1  11.60124013221322 -2.59919904380438 -0.89174451655165
 1  11.42817242544255 -0.03224285758576  3.48724376307631
 1  10.63674065176518  1.09596515961596  2.62567009120912
 1  10.27303492469247 -0.74345265976598  2.52838908010801
 1  13.73125002690269  0.86646527072707  0.82235630043004
 1  12.42401501470147  2.10941037883788  1.33771847754776
 1  13.23338917601760  1.08517299639964  2.51629811141114
 1  13.19100992049205  0.11864525492549 -2.60301275317532
 1  12.11985905430543  1.47121921282128 -1.84041197609761
 1  13.47739857245725  0.99465551845185 -1.29696518191819
 1 -5.43951617551755  2.80119450625063 -0.78464987578758
 1  10.19248049864987  0.12720406280628 -2.17495983178318
 1  15.04497734293429 -1.04162397679768  0.60148874817482
 1  8.29842169296930  2.14138646584659 -0.55780305750575
 1 -2.34538962316232  4.32527897759776  0.07326315601560
 1 -2.62092085638564  4.24920214501450 -1.65060816991699
 1 -3.80331671677168  4.61346952875287 -0.67908771027103
 1 -2.70818043814381  0.43282549454946 -0.43587654225423
 1  6.89765251515152 -1.98107766986699 -0.08321583688369
 1  8.26077129162916 -1.58791351615162 -0.56005677977798
 1  8.16376629822982 -1.61419374777478  1.18394215511551
 1  6.41789693679368  1.89549335473547 -0.30722274197420
 1 -0.72018337533753  2.97026106960696 -0.43052296379638
 1  5.09796578297830 -0.85263175987599  0.19344202530253
 1 -0.09572849604960 -0.17853966686669 -0.11699908880888
 1  3.93552272017202  2.00793642984298  0.01473924892489
 1  1.66019289448945  2.30388618051805 -0.37902060046005
 1  1.23027186198620 -1.22830943514351 -0.00509151355135
 1  3.16628795359536 -1.77757405890589 -0.19715748574858
 1  2.31086778317832 -1.20108433743374  1.19605289188919
=======
>>>>>>> 6a1b998aacd80a23911c140f266e48a14f2d523d

