%nproc=3
%Mem=2GB
# td=(NStates=1) CAM-B3LYP/6-31G(d,p) 

TD

0 1
 8 -11.72579924752475  0.43382403080308 -1.46865402900290
 8 -13.02068290409041 -2.48394670267027  1.27828351335134
 8  10.77826334623462 -1.14125401330133 -2.12059578587859
 8  14.47166053275327 -0.96719544104410 -0.10322480988099
 6 -11.09463763096310 -0.04098805350535 -0.29330875527553
 6 -11.61868815851585 -1.06987816771677 -1.28878771907191
 6 -11.89782182518252  0.32325900870087  0.97059671467147
 6 -13.06058126182618 -1.70301045894589 -1.09266090009001
 6 -13.33837229522952 -0.08368581618162  0.87930261816182
 6 -13.54193062656266 -1.50377191499150  0.35376414371437
 6 -10.76394198289829 -1.69325474297430 -2.35812813111311
 6 -9.68151759555955  0.13474060786079 -0.20795775387539
 6 -11.26863284068407 -0.23316891289129  2.17581264836484
 6 -11.79364974527453  1.88710381348135  1.17406549824983
 6 -8.75388881058106 -0.71755979717972  0.20870960996100
 6 -7.28256624622462 -0.53888573467347  0.15168286858686
 6 -6.50692470737074 -1.81136982578258  0.49583181948195
 6 -6.58995465716572  0.62310314021402 -0.13717227242724
 6 -5.29015895749575  0.91139317601760 -0.09265359555956
 6  11.99091833873387  0.29142917241724  1.26932646074607
 6  11.77976526662666 -0.65525168036804 -1.27823170287029
 6  12.68008523662366 -1.11110534023402  1.51041577497750
 6  13.45375006170617 -1.76711124452445  0.32418638303830
 6  12.49165410011001 -1.91363587258726 -0.83690765326533
 6  11.16840372827283  0.12200694859486 -0.07674049374937
 6  11.05929733463346  0.53493013501350  2.48231057125713
 6  13.00493361006101  1.31779500030003  1.22714576557656
 6  12.58742504870487  0.23138201150115 -2.13263721152115
 6 -4.62417891359136  2.09332183818382 -0.43521837073707
 6  9.88031921942194  0.48690949374937 -0.07106828352835
 6 -3.28538369676968  2.37735648934893 -0.35403566426643
 6  8.57932771877188  0.93974030783078 -0.23622796279628
 6 -2.99247093219322  3.78019947944794 -0.57433716581658
 6 -2.28847576267627  1.50863271197120 -0.33919645434543
 6  7.41677121962196  0.07932852085209 -0.00787997209721
 6  7.47817255375538 -1.29949690179018  0.27006692959296
 6  6.25064641264126  0.67314424472447 -0.12966690269027
 6 -0.90216434793479  1.83832295599560 -0.27150532563256
 6  4.92935453825383  0.05451456755676  0.00580194899490
 6  0.02846932593259  0.80528383828383 -0.02937204000400
 6  3.76658606630663  0.78863921432143 -0.12816028502850
 6  1.44875681648165  1.06025775347535 -0.17228960986099
 6  2.49717761826183  0.22346164586459  0.16914027192719
 6  2.27097695939594 -1.19953413371337  0.56550514411441
 1 -13.12403420422042 -2.72456543434343 -1.35046027002700
 1 -13.65155037873787 -1.25581956615662 -1.81832828752875
 1 -14.11735953815382 -0.04938786998700  1.76224890759076
 1 -13.68525791939194  0.55883101020102  0.04320198579858
 1 -14.65019232333233 -1.73168188158816  0.43819542384238
 1 -10.46850546744674 -2.57991477427743 -1.82875817121712
 1 -11.44055426432643 -1.83123791519152 -3.23347163336334
 1 -9.84228641214122 -1.22874208280828 -2.66232784528453
 1 -9.12475112991299  1.08029016001600 -0.59484329442944
 1 -10.36463779137914  0.49658092219222  2.67664340714071
 1 -11.98950431133113 -0.04449774817482  3.21846019611961
 1 -10.99786047974797 -1.26060293679368  1.99295008470847
 1 -12.20367290979098  2.36763288528853  0.23748696469647
 1 -12.61174741414141  2.08120369586959  1.95126883868387
 1 -10.77603788588859  2.21629221972197  1.46998129162916
 1 -12.22753582608261 -2.61283415701570  1.06489096799680
 1 -8.99575041694169 -1.82413077077708  0.37308640754075
 1 -6.04966441254125 -2.19365269036904 -0.37642568696870
 1 -5.58906132143214 -1.41713694629463  0.96790518671867
 1 -7.03839394999500 -2.60734300730073  1.05169131993199
 1 -7.30043135423542  1.53041137023702 -0.16532620912091
 1 -4.62178882358236 -0.04122550415041  0.13174939923992
 1  13.47974365146515 -0.92446413381338  2.17821276187619
 1  11.98555373237324 -1.83870325032503  2.20724672437244
 1  13.87337969486949 -2.68192985798580  0.73708063396340
 1  13.20220765926593 -2.24050052855286 -1.62731582628263
 1  11.74913492169217 -2.73195231913191 -0.73585892799280
 1  11.73509311751175  0.58719908660866  3.43170820952095
 1  10.23659063676367  1.44502006510651  2.36786431063106
 1  10.45981360256026 -0.46501481598160  2.67302354355436
 1  13.62216911881188  1.29987861206121  0.18794285908591
 1  12.28622123532353  2.19836927472747  1.21783648934894
 1  13.81647748484848  1.26191067016702  1.99530601220122
 1  12.95770659015901 -0.47105371497150 -2.84752720462046
 1  11.92467953635363  1.01241333223322 -2.70116805170517
 1  13.37367820042004  0.67653370627063 -1.31744723012301
 1 -5.25155737963796  2.98231261806181 -0.57836924772477
 1  10.10290154075408 -0.53792244984498 -2.38248058385839
 1  15.00019286448645 -1.09774958935894  0.67893649294929
 1  8.35892774357436  1.90327265446545 -0.74458173537354
 1 -2.77970305450545  4.25561201090109  0.46358218791879
 1 -2.04433319761976  4.04184140894089 -1.30186329542954
 1 -3.90896728182818  4.45517369916992 -1.01614141564156
 1 -2.31403102320232  0.47920013201320 -0.04806776137614
 1  6.51384413431343 -1.82981254335434  0.14553703840384
 1  8.09049426392639 -1.89339406420642 -0.55761653575358
 1  8.01385130673067 -1.57374970337034  1.29771353225323
 1  6.29204435153515  1.85493929932993 -0.30974299399940
 1 -0.72839419641964  2.96583062656266 -0.69651956345635
 1  4.99645563196320 -0.97599409610961  0.39781246234623
 1 -0.33875279847985 -0.16328814171417 -0.04494188308831
 1  3.95929509740974  1.83374901110111 -0.36439866486649
 1  1.81219809500950  2.16368216011601 -0.40865356375638
 1  1.14934376917692 -1.40286689088909  1.12626162176218
 1  2.25878720352035 -1.94104040554055 -0.29543731373137
 1  3.04261095749575 -1.45382961196120  1.36929021562156

