%nproc=3
%Mem=2GB
# td=(NStates=1) CAM-B3LYP/6-31G(d,p) 

TD

0 1
<<<<<<< HEAD
 8 -11.70950761836183  0.33863451185119 -1.56028319191919
 8 -12.97924876067607 -2.45611391939194  1.35448113311331
 8  10.74104962486249 -1.08551843974397 -2.05702942924292
 8  14.59004237093709 -0.71940066156616 -0.02888737613761
 6 -11.06291445864586 -0.01164511921192 -0.31397082148215
 6 -11.66184247394739 -1.03639481938194 -1.21464030433043
 6 -11.82882492549255  0.46501318411841  0.96807646264626
 6 -13.05367057075708 -1.66735689358936 -0.94238587258726
 6 -13.32707116511651  0.03700625302530  0.89007369526953
 6 -13.51570800430043 -1.53036457425743  0.45728449574957
 6 -10.68396398509851 -1.82342776027603 -2.13979629792979
 6 -9.54853429722972  0.14716184998500 -0.24654161226123
 6 -11.12192817021702 -0.09684528052805  2.15847091419142
 6 -11.61886226652665  1.93011811491149  0.99830792249225
 6 -8.71674509620962 -0.79235727692769  0.29524826382638
 6 -7.25300328992899 -0.60327217331733  0.33927162746275
 6 -6.40979499439944 -1.94816350515052  0.54837707400740
 6 -6.55021068276828  0.65142597249725  0.07678912371237
 6 -5.28003794539454  0.89241127782778 -0.11178550875088
 6  11.89443869076908  0.08932896239624  1.41632116021602
 6  11.73078036813681 -0.63257941314131 -1.18197207690769
 6  12.70399762786279 -1.21188541824182  1.58607334073407
 6  13.43811849854986 -1.71313584698470  0.39271323572357
 6  12.52578751345134 -1.85736024502450 -0.80922488498850
 6  11.10418730663066  0.03972872077208  0.03766094639464
 6  10.93933533843384  0.14271091309131  2.57998033823382
 6  12.69622273897390  1.29525274607461  1.47125017601760
 6  12.61346765296530  0.38034690799080 -1.93814776257626
 6 -4.70210670637064  2.16226873287329 -0.16006085498550
 6  9.82485367286729  0.51284208700870 -0.06810798749875
 6 -3.33743890229023  2.45640439413941 -0.45601586228623
 6  8.65624541054105  0.86122245604560 -0.21815615561556
 6 -3.10344202930293  3.83956541604160 -0.53415314741474
 6 -2.35990290539054  1.51335318401840 -0.29919245394539
 6  7.38881842434243  0.10909149714971 -0.17488667276728
 6  7.68511324782478 -1.36763371547155 -0.00810088718872
 6  6.19302065006501  0.66422335263526 -0.30882481848185
 6 -0.94061819331933  1.79670879457946 -0.44479265436544
 6  4.90113171597160  0.03765288138814 -0.12554118531853
 6  0.05262174117412  0.83075638553855 -0.24831393419342
 6  3.70344975267527  0.73382373277328 -0.29284675367537
 6  1.38264020482048  1.17062879057906 -0.33114549544955
 6  2.42935083558356  0.22250154985499 -0.23558020012001
 6  2.28209807150715 -1.24034821512151  0.02684127772777
 1 -12.84804660546055 -2.70505348314831 -1.19241446544655
 1 -13.79399462316232 -1.27809179337934 -1.79574602930293
 1 -13.90829863206321  0.37351442024202  1.84423710641064
 1 -13.82514190779078  0.62630775787579 -0.06408874327433
 1 -14.62221952605261 -1.53261197459746  0.30132173647365
 1 -9.94297291419142 -2.64030081288129 -1.55782107750775
 1 -11.46081629052905 -2.13605839723972 -2.99451773797380
 1 -9.99878206170617 -1.15300450905091 -2.68589020152015
 1 -9.10137879267927  1.05134726572657 -0.95414922502250
 1 -10.11516284388439  0.46032729682968  2.11938768156816
 1 -11.66850221112111  0.27393409500950  2.99045739583958
 1 -11.26811750545054 -1.38338521502150  2.34271506120612
 1 -12.09550209270927  2.31734785678568  0.12519573557356
 1 -12.26273251265127  2.27519309480948  1.77570128192819
 1 -10.60017029912991  2.24265485598560  1.07798209170917
 1 -12.00852392489249 -2.32485535913591  1.33536801570157
 1 -9.03917475937594 -1.70588894659466  0.84424352325233
 1 -6.12569201530153 -2.48655198029803 -0.47892593699370
 1 -5.42795521082108 -1.79871510411041  1.32794119031903
 1 -6.93377348794879 -2.66442871587159  1.25548169896990
 1 -7.44069538063806  1.47152548164816  0.21820214371437
 1 -4.70349699439944  0.02753137153715 -0.14251802750275
 1  13.34792046914692 -0.98174986238624  2.42795773637364
 1  12.11077625462546 -1.90338971897190  1.98457445714571
 1  13.82518487538754 -2.62851451645165  0.57625455135514
 1  13.19111655015502 -2.01461794029403 -1.61592468716872
 1  11.91284129232923 -2.74242336623662 -0.49694503660366
 1  11.36218582678268 -0.14038367166717  3.47530256895690
 1  10.53238021572157  1.23100866396640  2.66041356555656
 1  10.28073569476948 -0.86191450595059  2.50331657285729
 1  13.51265816771677  1.56967559175918  0.91738580338034
 1  11.72275488868887  2.15198463626363  1.55092979867987
 1  13.16303214031403  1.54203868296830  2.42527900950095
 1  13.21038185768577 -0.37531414101410 -2.72784523642364
 1  11.84435150355035  0.99563165406541 -2.41014894979498
 1  13.30004083668367  0.97241329422942 -1.34318980438044
 1 -5.29305152905291  3.05014940174017 -0.43970538133813
 1  10.19079032963296 -0.47592625022502 -2.33283561936194
 1  14.73671651685168 -0.30414022842284  1.06310490979098
 1  8.53671552235224  1.99187151435144 -0.70103738093809
 1 -2.26726181038104  4.22238868856886  0.09581541124112
 1 -2.54429319361936  3.77876510131013 -1.43648675777578
 1 -3.95587197229723  4.56798498029803 -0.52808260976098
 1 -2.77749736983698  0.40051226322632 -0.20777373197320
 1  6.65968871877188 -2.02631219331933 -0.15774328962896
 1  8.62656787128713 -1.53389811461146 -0.68082885698570
 1  7.89773969556956 -1.50414274267427  1.09247300820082
 1  6.09620476757676  1.72382618801880 -0.73723574327433
 1 -0.74735609260926  2.81160520402040 -0.69596950845085
 1  4.79067505390539 -1.04504100080008  0.33491617271727
 1 -0.52813173637364 -0.03372518541854  0.02039465056506
 1  3.80564973287329  1.93745938213821 -0.56703892889289
 1  1.60124699989999  2.13574936683668 -0.37789048744874
 1  1.13603243804380 -1.44960156435644 -0.19731073547355
 1  2.68339966476648 -1.80564686618662 -0.72327009700970
 1  2.68271496789679 -1.56530075907591  1.09193247984798
=======
>>>>>>> 6a1b998aacd80a23911c140f266e48a14f2d523d

