%nproc=3
%Mem=2GB
# td=(NStates=1) CAM-B3LYP/6-31G(d,p) 

TD

0 1
 8 -11.68659532713271  0.25065571397140 -1.55511267486749
 8 -13.05600643644364 -2.56522483048305  1.23964964996500
 8  10.65022054195420 -1.06427631553155 -2.09978370467047
 8  14.47035040174017 -0.94251297279728 -0.24141862926293
 6 -10.94146231343134 -0.12017597229723 -0.37606703110311
 6 -11.61499778947895 -1.11549272917292 -1.29618845914591
 6 -11.80174221722172  0.30247693049305  0.95410506550655
 6 -12.92181738543854 -1.80652080998100 -1.06706834083408
 6 -13.31358981698170 -0.11845929352935  0.86861154905491
 6 -13.49916635013501 -1.55952749054906  0.36464523182318
 6 -10.68691428012801 -1.84153957145715 -2.31961427972797
 6 -9.52649209300930  0.12135926972697 -0.41085804390439
 6 -11.14609058645864 -0.19847544354435  2.10863593069307
 6 -11.72168254855485  1.83298840194019  1.04743283498350
 6 -8.59259268096810 -0.68557659885989  0.29414815381538
 6 -7.22228021762176 -0.51615346144614  0.35142284258426
 6 -6.39244325922592 -1.70001869066907  0.63891612791279
 6 -6.62643830553055  0.75311614151415  0.04657610241024
 6 -5.21134107570757  0.94199623632363 -0.14184851505151
 6  11.94813406030603  0.15985601510151  1.25868539663966
 6  11.70550784088409 -0.70480663586359 -1.24299817951795
 6  12.74888211631163 -1.16076030573057  1.61690642404240
 6  13.39748443514351 -1.76055058845885  0.29191315571557
 6  12.53269820452045 -1.92882739173917 -0.88347230973097
 6  11.03329021692169 -0.00775602770277  0.02938011831183
 6  11.10578198309831  0.39187582958296  2.50003234343434
 6  12.95302841954195  1.29290251105110  1.13179623062306
 6  12.43024933113311  0.20549942324232 -2.21984593239324
 6 -4.68010450615061  2.21399390539054 -0.31695654455446
 6  9.86860804830483  0.40169097189719 -0.04008518521852
 6 -3.34375953435344  2.69390814451445 -0.46754701540154
 6  8.59641942794279  0.87903423722372 -0.15511985198520
 6 -3.05690737583758  4.13930539003900 -0.68599833193319
 6 -2.26212312741274  1.72635448414842 -0.10947348204820
 6  7.40728027052705  0.03042363036304  0.00638145404540
 6  7.65875061156116 -1.38113506560656  0.50359028192819
 6  6.18174952295229  0.57533446374637 -0.08790272627263
 6 -0.93131726322632  1.98062718641864 -0.13400157525753
 6  4.91288289108911 -0.03260414431443 -0.02338096929693
 6 -0.06275979697970  1.00204351425143  0.06012690989099
 6  3.79470887858786  0.70987133753375 -0.14120158915892
 6  1.30366230703070  1.12599432713271 -0.13485586648665
 6  2.36692459295930  0.32462176187619 -0.04140078217822
 6  2.01515137683768 -1.20146432673267  0.34739333293329
 1 -12.79422122292229 -2.98946192399240 -1.00940616461646
 1 -13.69011423512351 -1.51586557075708 -1.78705516021602
 1 -13.77775557775778  0.15277234603460  1.90279296199620
 1 -13.75185457905791  0.57918304540454  0.03744140974097
 1 -14.56596390049005 -1.63434214761476  0.33175477977798
 1 -10.32266088298830 -2.76429321212121 -2.06417171257126
 1 -11.18074828372837 -2.16874166556656 -3.17204549074907
 1 -9.89297148064806 -1.12946215481548 -2.65974758725873
 1 -9.52442109690969  0.82421455245525 -1.08365217531753
 1 -10.13921524912491  0.20651191529153  2.46192193499350
 1 -11.87225258615861 -0.06942024042404  2.79603795389539
 1 -10.82924361806181 -1.46185306180618  1.99869065876588
 1 -12.18634117661766  2.38721484348435  0.19554277027703
 1 -12.30138637803780  2.14108968446845  1.81151486328633
 1 -10.74533481558156  2.28243883438344  0.98528282178218
 1 -12.10837390989099 -2.55459833343334  1.34373885278528
 1 -8.90163100500050 -1.67189554725473  0.73916301520152
 1 -6.04257370347035 -2.18812213731373 -0.34339238363836
 1 -5.41649406470647 -1.31578681128113  1.14369276547655
 1 -7.03049315991599 -2.50771304430443  1.30050620142014
 1 -7.36838814991499  1.52434076317632 -0.13739341584158
 1 -4.51233787848785 -0.12794417601760 -0.22099587528753
 1  13.48817449454945 -0.97516920432043  2.39322426302630
 1  12.11647682468247 -2.11400078007801  1.78478447814781
 1  13.71194355125512 -2.67049871487149  0.65150207610761
 1  13.20026746524652 -2.29794627312731 -1.61053414811481
 1  11.88085809400940 -2.99582870677068 -0.59041438353835
 1  11.77513712191219  0.85457582428243  3.27803284198420
 1  10.57353433113311  1.29973553665367  2.20309783398340
 1  10.43639126032603 -0.42449076357636  2.49061530273027
 1  13.42637953985398  1.20571919611961  0.23962802760276
 1  12.27522013521352  2.29639907770777  1.18154285998600
 1  13.52246808390839  1.14232871197120  2.07574405600560
 1  12.80544136363636 -0.57275388498850 -2.95501795369537
 1  11.72911998039804  1.02662475337534 -2.52219015391539
 1  13.25089592219222  0.87765381828183 -1.71145663106311
 1 -5.50522274617462  3.07939232603260  0.00860945014501
 1  10.17928917951795 -0.22490114771477 -2.33065540134013
 1  15.22187503270327 -0.77841765616562  0.38408700800080
 1  8.47739959075908  1.77145947314732 -0.78336561376138
 1 -2.79218430263026  4.60037648734874  0.26483231293129
 1 -2.14880364466447  3.97212443724372 -1.44208731783178
 1 -4.00455684078408  4.68927710951095 -1.09382918441844
 1 -2.58101772187219  0.74518673067307  0.18671571697170
 1  6.70129287918792 -2.07990755285529  0.42499498419842
 1  8.25324053855386 -1.75307003180318 -0.26961773587359
 1  8.21354127572757 -1.65510783918392  1.29593335423542
 1  6.18307345444545  1.68343214861486 -0.21018303800380
 1 -0.56772812981298  2.93995803930393 -0.47863777527753
 1  4.90651663806381 -1.14298079477948 -0.20919823872387
 1 -0.49537846104610  0.07616580368037  0.46974958605861
 1  3.77555672357236  1.89046468266827 -0.38017024202420
 1  1.41507838303830  2.16587237913791 -0.27548024642464
 1  0.81704053885389 -1.25398200240024  0.03659265486549
 1  2.46076740154015 -1.95379168066807 -0.45270304030403
 1  2.44301099749975 -1.09563379237924  1.38920220682068

