%nproc=3
%Mem=2GB
# td=(NStates=1) CAM-B3LYP/6-31G(d,p) 

TD

0 1
 8 -11.73871053865387  0.27388803720372 -1.44832199579958
 8 -12.94013484928493 -2.64665297329733  1.22129781478148
 8  10.64805032493249 -1.17063695159516 -2.09158288458846
 8  14.49954332103210 -1.00635935743574  0.08114362696270
 6 -11.15594376157616 -0.14551850655065 -0.32739216361636
 6 -11.70482677237724 -1.13468464836484 -1.28190703100310
 6 -11.85365740874087  0.31557824062406  1.03030268526853
 6 -13.10387559125913 -1.69203936183618 -0.92051368536854
 6 -13.26351480948095 -0.16946439403940  1.04955964386439
 6 -13.45055148864886 -1.56661819961996  0.53274204150415
 6 -10.91834742344234 -1.79244466196620 -2.29226154445444
 6 -9.56437588138814  0.21033816761676 -0.29981693979398
 6 -11.14953093049305 -0.12456805280528  2.25364043114311
 6 -11.73680406070607  1.89844494759476  0.94296238793879
 6 -8.62467588928893 -0.72985102630263  0.08781752075208
 6 -7.23006099569957 -0.50764261036104  0.17480518081808
 6 -6.35119913481348 -1.76726541534153  0.50167240354035
 6 -6.53174883658366  0.73519434933493  0.00084152895290
 6 -5.18178812041204  0.93050508720872 -0.04266859705971
 6  11.86332557945795  0.08235826532653  1.34485401350135
 6  11.63220051015102 -0.60827698289829 -1.18988286798680
 6  12.62338956705671 -1.22347657735774  1.55697043044304
 6  13.40510519721972 -1.79304383778378  0.44485845024502
 6  12.47722265696570 -1.89436394539454 -0.82495645814581
 6  11.10406729462946  0.07298204610461  0.09458663896390
 6  11.02731413631363  0.35786242824282  2.58214055425543
 6  12.85876899359936  1.29829305010501  1.28362141314131
 6  12.53661996819682  0.32248112141214 -2.06272021982198
 6 -4.62743923962396  2.14401690769077 -0.25951079998000
 6  9.82028321582158  0.55509631243124 -0.01393256995700
 6 -3.34748990739074  2.53962271597160 -0.53322358305831
 6  8.59130891689169  0.92095842964296 -0.31827616761676
 6 -3.11548323342334  4.05073653315332 -0.72163189528953
 6 -2.27836475157516  1.68241008970897 -0.34359689438944
 6  7.38307785028503  0.06882747074707 -0.12605178927893
 6  7.76796153265327 -1.32005895799580  0.17838776167617
 6  6.14507585558556  0.61925885618562 -0.19947388338834
 6 -0.86526065756576  1.87695681938194 -0.32041021612161
 6  4.89257085988599  0.05853496959696 -0.00662929412941
 6  0.03453993299330  0.89453276317632 -0.20297940074007
 6  3.78055746344634  0.74938528892889 -0.17046451545155
 6  1.41686362716272  1.15047677537754 -0.11078345924592
 6  2.45576347684768  0.29821912161216 -0.11744838693869
 6  2.30975083678368 -1.20628480878088  0.09092768636864
 1 -13.23827562836284 -2.70957393519352 -1.29287451145115
 1 -13.72360758445845 -1.13041702590259 -1.58652510721072
 1 -13.82887068926893 -0.25246817801780  2.11911459415942
 1 -13.88016741034103  0.43800892799280  0.35592325792579
 1 -14.55277258135814 -1.77915662906291  0.70509211351135
 1 -10.36752536943694 -2.80290707350735 -1.92299759515952
 1 -11.53399360826083 -2.08187297869787 -3.06416470267027
 1 -10.05264744824482 -1.02310151875188 -2.72851446394639
 1 -9.37675633043304  1.28560069106911 -0.66691050115012
 1 -10.15007633523352  0.29552081618162  2.21368711151115
 1 -11.56289165006501  0.16540324192419  3.25738408850885
 1 -11.10682137583758 -1.11092796929693  2.42690348004800
 1 -12.29075161766177  2.28833495549555  0.12956617261726
 1 -12.47593383278328  2.43907948344834  1.77984169596960
 1 -10.76856713881388  2.31159174967497  0.86011030453045
 1 -11.93697677017702 -2.64888776237624  1.05912039093909
 1 -8.92715355725572 -1.65591394909491  0.56604570347035
 1 -5.87171661776178 -2.09214253935394 -0.45246329072907
 1 -5.55708812411241 -1.47162239483948  1.26968536473647
 1 -7.31672178277828 -2.50608288128813  0.89065521632163
 1 -7.20044135523552  1.65111344044404 -0.09400907740774
 1 -4.56262290699070  0.27965658405841  0.21757798209821
 1  13.39359503660366 -1.03803549094909  2.42194713531353
 1  11.95191036803680 -1.82594197419742  1.90385638533853
 1  13.79621197809781 -2.80826249124912  0.49385631153115
 1  13.08151559005901 -1.95485196369637 -1.64155725042504
 1  11.87436744494449 -2.93158228212821 -1.02495783788379
 1  11.63592320052005  0.36005637233723  3.38197323602360
 1  10.57304428212821  1.30439600270027  2.25079260346035
 1  9.97042466366637 -0.37833614811481  2.57574381558156
 1  13.71904880678068  1.14273289748975  0.40473453825382
 1  12.47229984318432  2.19445888368837  1.09652435813581
 1  13.43216905400540  1.45059953905391  2.36076255785579
 1  12.70694151365137  0.00895428582858 -3.09708216011601
 1  12.25522259065907  1.29038112901290 -2.02845077997800
 1  13.52615344794479  0.32362841574157 -1.66143162856286
 1 -5.23718594249425  2.93706809360936 -0.26252766356636
 1  10.31100235083508 -0.39669832743274 -2.35462779857986
 1  15.27788063326333 -1.00773058745875  0.61836043534353
 1  8.52311416221622  1.77576990419042 -0.55793307050705
 1 -2.45564064826483  4.47629407910791  0.18368419811981
 1 -2.37999676397640  4.43840106490649 -1.38675178427843
 1 -4.01049743484348  4.65788397019702 -0.81117091859186
 1 -2.50855047514752  0.74261647364736 -0.13104605920592
 1  7.07830057995800 -1.97470703280328 -0.20376789208921
 1  8.85793100760076 -1.60757548234823 -0.12044281838184
 1  7.76415633723372 -1.35313764216422  1.36129989088909
 1  6.16163131023102  1.66312011741174 -0.42092411211121
 1 -0.70546190319032  2.92414645814582 -0.36356626812681
 1  4.96369235563556 -1.03316981368137  0.24079676077608
 1 -0.15467439063906 -0.19565137803780 -0.17703509240924
 1  3.96966613451345  1.87125276147615 -0.22058428342834
 1  1.79739661486149  2.10781657355736 -0.22058475687569
 1  1.28032686748675 -1.43535013921392  0.08938793439344
 1  3.05889721452145 -1.63652995449545 -0.66994476447645
 1  2.61560825722572 -1.35890011901190  1.03536682328233

