%nproc=3
%Mem=2GB
# td=(NStates=1) CAM-B3LYP/6-31G(d,p) 

TD

0 1
 8 -11.91024769236924  0.42620326872687 -1.39940710431043
 8 -13.14417525332533 -2.56844515251525  1.32365805080508
 8  10.53642916281628 -1.16266615451545 -1.94115784208421
 8  14.60494386108611 -0.91037975947595 -0.29803429082908
 6 -11.10291845904590 -0.06295024972497 -0.32460188458846
 6 -11.80349663936394 -1.07730891079108 -1.27549638993899
 6 -11.76911895489549  0.27828451125113  1.03722337733773
 6 -13.15034023772377 -1.66296645454545 -0.92701433543354
 6 -13.24201265926593 -0.05685313291329  1.06364105200520
 6 -13.57775420892089 -1.39242077987799  0.48613738103810
 6 -11.10919650835084 -1.72312773027303 -2.39226154445445
 6 -9.66824626842684  0.18463559735974 -0.42359931803180
 6 -11.08660463786379 -0.35004060006001  2.34230929802980
 6 -11.58142852315232  1.88987409050905  1.29764785648565
 6 -8.75454887658766 -0.72091013221322  0.01517025602560
 6 -7.20748873847385 -0.64189603570357  0.01800950125013
 6 -6.39408342324232 -1.83685237403740  0.41849408570857
 6 -6.67466312801280  0.53007383728373 -0.32967152235224
 6 -5.27993793539354  0.82107414411441 -0.19086341654165
 6  12.07413666056606  0.08476850635064  1.33225275337534
 6  11.60479776987699 -0.66248240344034 -1.28298217791779
 6  12.84804203230323 -1.23347757745775  1.40702543594359
 6  13.52358704540454 -1.83337787118712  0.09577354175418
 6  12.44770970567057 -1.96114062306231 -0.92826678917892
 6  11.11471835973597 -0.06714196629663  0.08245542584258
 6  11.22657406230623  0.27120376237624  2.60363270347035
 6  13.14365748244824  1.22528574937494  1.25105815681568
 6  12.35334164036404  0.37546641994199 -2.11329527732773
 6 -4.68135463116312  2.07305981198120 -0.51721657055706
 6  9.93401458895890  0.50458126092609  0.03694251755176
 6 -3.40639579797980  2.41572032573257 -0.65157541824182
 6  8.69862964896490  1.04797113091309  0.08870453045305
 6 -3.03304498959896  3.77230869036904 -0.94222395449545
 6 -2.37858477357736  1.50389223792379 -0.44740727542754
 6  7.46844638713871  0.22825341334133  0.12514333023302
 6  7.62320705720572 -1.22902985508551  0.61150107300730
 6  6.25447679567957  0.83585051535153  0.10742680668067
 6 -0.98910304180418  1.81639076277628 -0.53515169026903
 6  5.00518212101210  0.25144426052605  0.25508687748775
 6  0.07885436443644  0.96152946284628 -0.17511661446145
 6  3.84163357105711  0.89557990839084 -0.08173564256426
 6  1.47010895169517  1.27547927562756 -0.14110649154915
 6  2.53893179367937  0.29642894259426  0.06813017091709
 6  2.37910777247725 -1.04539872017202  0.44458305190519
 1 -13.11366316711671 -2.79366234403440 -1.19960518451845
 1 -13.67623284698470 -1.21299528372837 -1.70938739343934
 1 -13.59725752795280  0.02491956075608  2.07926060876088
 1 -13.77137653125312  0.73129825692569  0.53027069266927
 1 -14.72017932203220 -1.48653736713671  0.61364296859686
 1 -10.73789240614061 -2.65410219301930 -1.98259355475548
 1 -11.72461267016702 -2.01540633203320 -3.42286057225723
 1 -10.19276145964596 -1.33119232783278 -2.83079469196920
 1 -9.40258891369137  1.07974010501050 -0.72765657575758
 1 -10.14661598919892  0.00602186628663  2.73252899569957
 1 -11.84480984188419  0.15595229682968  3.10737908800880
 1 -11.25045573927393 -1.47086396289629  2.28612940264026
 1 -12.07130967346735  2.46276239823982  0.41958517451745
 1 -12.14657089648965  2.02712828832883  2.16811052285229
 1 -10.53559384148415  2.21196178667867  1.37121141464146
 1 -12.12111518401840 -2.70696356995700  1.21672615151515
 1 -9.09899074097410 -1.71795015271527  0.31028012691269
 1 -5.57813725982598 -1.77318064316432 -0.41918996339634
 1 -5.92422483778378 -1.87012224482448  1.47435583178318
 1 -7.14064417501750 -2.93655592859286  0.40296644744474
 1 -7.29459077017702  1.31382971207121 -0.56511618811881
 1 -4.45385202990299 -0.01155253685369  0.03459968426843
 1  13.52474815191519 -1.24944663206321  2.34360930153015
 1  12.07024220122012 -1.96169554955496  1.81462746244624
 1  13.82751510841084 -2.75061672667267  0.17867479337934
 1  12.89362680118012 -2.30738721722172 -1.87567066176618
 1  11.73363337153715 -2.72946207010701 -0.48676401850185
 1  11.99819942814282  0.30038040474047  3.45022006070607
 1  10.48009498719872  1.24019958305831  2.46887441164116
 1  10.77245486668667 -0.67687600210021  2.54768100930093
 1  13.85256215811581  1.08961758595860  0.38376244104410
 1  12.78095070827083  2.22485192299230  1.18894360006001
 1  14.11888772587259  1.29564404350435  2.11178766036604
 1  12.33371419091909 -0.10861747134713 -3.05080753265327
 1  11.88344541294129  1.25200729162916 -2.21815975087509
 1  13.39441027362736  0.47144319721972 -1.73625911131113
 1 -5.33664588848885  2.89896428322832 -0.72237364816482
 1  9.76630788138814 -0.51681033863386 -1.91133346914691
 1  15.15074791999200 -0.85994580898090  0.50046864616462
 1  8.68268011881188  2.16190851805181 -0.15470274747475
 1 -2.54714979917992  4.22278872857286 -0.08274244454445
 1 -2.53835259955996  3.95594281908191 -1.88167127622762
 1 -4.04484086918692  4.30848903070307 -0.89662946444644
 1 -2.72219183928393  0.38214042604260 -0.13067602220222
 1  6.63286603650365 -1.85721528362836  0.34231671637164
 1  8.51298651315131 -1.50200492529253  0.18913813971397
 1  7.77342726432643 -1.13786611501150  1.70660442134213
 1  6.31092623972397  1.99933373877388 -0.32244426412641
 1 -0.67517887488749  2.95029907340734 -0.55956586808681
 1  4.80029601600160 -0.84534103080308  0.44326700780078
 1 -0.08400732393239 -0.16520833373337 -0.20807819671967
 1  3.92788195609561  1.84482011821182 -0.32435466046605
 1  1.61679855505551  2.41509730163016 -0.16359905830583
 1  1.19868870367037 -1.25881248544854  0.28451744734473
 1  3.16913823862386 -1.83456975847585 -0.10270804080408
 1  2.48029472587259 -1.30281451045105  1.51220450705071

