%nproc=3
%Mem=2GB
# td=(NStates=1) CAM-B3LYP/6-31G(d,p) 

TD

0 1
<<<<<<< HEAD
 8 -11.56414308190819  0.29313996239624 -1.50328749234923
 8 -13.03444428022802 -2.54313262126213  1.27318300330033
 8  10.56589210911091 -1.16727661556156 -2.09989371567157
 8  14.58394176087609 -1.09739846134613 -0.03229771717172
 6 -11.00281844904490 -0.17961191589159 -0.27787721212121
 6 -11.61156744644464 -1.08470965086509 -1.31887072737274
 6 -11.75603764676468  0.27377406020602  1.07630728572857
 6 -13.05655085878588 -1.67886804470447 -1.03914554855486
 6 -13.22238069606961 -0.15541298889889  0.90602529042904
 6 -13.40143657715772 -1.51072261006101  0.36378514581458
 6 -10.76076166486649 -1.87308272577258 -2.20448276657666
 6 -9.48138758255826  0.11697883168317 -0.20603756185619
 6 -11.00504648204820 -0.31307690369037  2.28228329542954
 6 -11.73962434273427  1.79940504360436  1.13728181988199
 6 -8.59856327802780 -0.76901494269427  0.26353509250925
 6 -7.16755474507451 -0.53614546064606  0.29698739903990
 6 -6.24500851575158 -1.75401409020902  0.61409364566457
 6 -6.68000366206621  0.72268309820982  0.14150559535954
 6 -5.29012895449545  0.94158619531953 -0.02807713791379
 6  11.86748599549955  0.01378140764076  1.37048657675768
 6  11.66623391349135 -0.59164531973197 -1.20546442614261
 6  12.58335556365637 -1.21164539423942  1.58629336273627
 6  13.41321600830083 -1.79182371577158  0.39553351775178
 6  12.34087902260226 -1.92551706070607 -0.78638260076008
 6  11.07561444934493  0.01279602750275  0.10237741804180
 6  10.84000540544054  0.29162580458046  2.59839217941794
 6  12.91572468916892  1.24534775557556  1.37016006700670
 6  12.63679998619862  0.20171904520452 -1.96274022182218
 6 -4.69402589828983  2.22150465646565 -0.25073992289229
 6  9.86977816531653  0.55094589738974 -0.05714689138914
 6 -3.35825098349835  2.60787954165417 -0.44712497319732
 6  8.63307309330933  0.90853718751875 -0.20908524852485
 6 -2.94215590069007  4.03008446794679 -0.84197392949295
 6 -2.32376929202920  1.67489933863386 -0.27040957565757
 6  7.42074161666167  0.13338392639264  0.00127094299430
 6  7.62102683918392 -1.23131008310831  0.32904282718272
 6  6.23624497249725  0.80072700300030 -0.27774171017102
 6 -0.92886701820182  1.90527965166517 -0.38319649474947
 6  4.86221782458246  0.21552066816682 -0.19843847504750
 6 -0.01141466246625  0.92728603850385 -0.20939004180418
 6  3.68640804850485  0.86472682308231 -0.44964243324332
 6  1.26067800860086  1.21606333403340 -0.22737511841184
 6  2.37808570907091  0.35193449314931 -0.23822046414641
 6  2.16013587528753 -1.16593077337734 -0.17924933133313
 1 -13.33243504430443 -2.71762474027403 -1.27412263626363
 1 -13.70566579027903 -0.97681166536654 -1.65157161186119
 1 -13.80784858705871  0.05619268806881  1.77842052475248
 1 -13.73741313491349  0.56114124122412  0.21219888548855
 1 -14.33254055815581 -1.55884459785979  0.32951455575558
 1 -10.73738235513551 -2.92803958675868 -1.83103839923992
 1 -11.28064827372737 -1.75050984238424 -3.27467575377538
 1 -9.64935711921192 -1.63170237883788 -2.12862447494749
 1 -9.19235789058906  1.11521365236524 -0.46218002810281
 1 -10.07060838843884 -0.11481021692169  2.37442318511851
 1 -11.74511987288729 -0.10176347474748  2.93573192329233
 1 -10.80177087078708 -1.39821669816982  2.40846163586359
 1 -12.35898844134413  2.22886900890089  0.25933914991499
 1 -12.35467170657066  2.01434701020102  2.06869058085809
 1 -10.64221450355036  2.06591718221822  1.27377167066707
 1 -12.18674174667467 -2.58050092369237  1.10194467336734
 1 -9.09395023692369 -1.74319267696770  0.74761386028603
 1 -5.67144659075908 -2.22612593769377 -0.19669771417142
 1 -5.51215363066307 -1.61442667526753  1.38299669586959
 1 -6.85971608220822 -2.64751702470247  1.11637778857886
 1 -7.45488679977998  1.49483781288129  0.08697902140214
 1 -4.56405305000500  0.21371999039904 -0.23622739843984
 1  12.92651832893289 -1.09172085948595  2.61146608720872
 1  11.90328550555055 -2.01081046104610  1.67423342304230
 1  13.84294665156516 -2.82057372237224  0.58788571447145
 1  12.92258969746975 -2.27069354785479 -1.64788788348835
 1  11.77978798699870 -2.69193831773177 -0.31509685178518
 1  11.41477108530853  0.04560492719272  3.56219125782578
 1  10.43474045174517  1.26568213131313  2.70356788098810
 1  10.10630825202520 -0.59732804730473  2.60021626282628
 1  13.78502540444044  1.24846347054706  0.73748781358136
 1  12.57405001820182  2.35172461026103  1.07829253495350
 1  13.08219405650565  1.66079055815582  2.42519900150015
 1  12.85140596009601 -0.32346895649565 -2.81391384328433
 1  12.08174524292429  1.09217130803080 -2.19695763066307
 1  13.49896072867287  0.69825587848785 -1.52825831123112
 1 -5.50143236713671  3.00794518131813 -0.19561097189719
 1  10.16906815741574 -0.31339999759976 -2.48462079787979
 1  14.91452429762976 -0.81032084648465  0.97802640194019
 1  8.51519337013701  1.92787511471147 -0.50817809500950
 1 -2.04951003520352  4.34202065176518 -0.10268443874387
 1 -2.63474223852385  4.11231845664566 -1.95830893999400
 1 -3.79971635673567  4.71865004680468 -0.71674147564756
 1 -2.50393001310131  0.66341855385538 -0.07263021762176
 1  6.72916566646665 -1.80253981608161  0.06023850855085
 1  8.46039125362536 -1.66526125092509 -0.33743451755176
 1  7.99975989758976 -1.64803713211321  1.24128788968897
 1  6.35869101620162  1.68111191659166 -0.73725574527453
 1 -0.61571292829283  3.09562360586059 -0.50593050455045
 1  4.88425441184118 -0.96148264496450  0.21409409050905
 1 -0.47361628482848 -0.06249806270627  0.50942355345535
 1  3.69769893779378  1.85052068826883 -0.65903812881288
 1  1.53027990319032  2.21212700460046 -0.80564326272627
 1  1.01708054285428 -1.66342294649465 -0.95206621102110
 1  3.14631595639564 -1.61668797029703 -0.56535430543054
 1  2.35660235663566 -1.39540376937694  1.01991527812781
=======
>>>>>>> 6a1b998aacd80a23911c140f266e48a14f2d523d

