%nproc=3
%Mem=2GB
# td=(NStates=1) CAM-B3LYP/6-31G(d,p) 

TD

0 1
<<<<<<< HEAD
 8 -11.66837350495049  0.25157580598060 -1.53241040464046
 8 -13.05758659445945 -2.51731003900390  1.43776946194619
 8  10.59628514841484 -1.08719860776078 -2.12949667596760
 8  14.38747211391139 -1.02020074157416 -0.04556904430443
 6 -11.08029619681968 -0.06881083578358 -0.30894031843184
 6 -11.57634392409241 -1.16151733163316 -1.27757659795980
 6 -11.90250229322932  0.37857454025403  0.99947960296030
 6 -12.85615081878188 -1.82920307820782 -0.94946658065807
 6 -13.35847430543054 -0.11038848644865  0.88234292219222
 6 -13.52652908640864 -1.61332287008701  0.40859962726273
 6 -10.57605319401940 -1.94384980248025 -2.08622094039404
 6 -9.54492393619362  0.15025215901590 -0.32458941704170
 6 -11.28942491989199 -0.06338193419342  2.22353742084208
 6 -11.84224460476048  1.90066516961696  0.98242633433343
 6 -8.67229065076508 -0.78111615281528  0.08514725372537
 6 -7.16420441004100 -0.64590643674367  0.20966866716672
 6 -6.28139215411541 -1.81903059185919  0.48454069036904
 6 -6.59644530623062  0.65431626152615 -0.00211876707671
 6 -5.22011195279528  0.83595563226323 -0.12875720592059
 6  11.91278052495250 -0.07203717421742  1.34326385448545
 6  11.76584387448745 -0.60869702490249 -1.18744262396240
 6  12.55896312441244 -1.38788301800180  1.54454918831883
 6  13.31100578727873 -1.95953048644864  0.36821078547855
 6  12.37239217391739 -1.96859136813681 -0.83415737823782
 6  11.08338522642264  0.00874562246225  0.00332751305130
 6  10.95799720462046  0.19336597859786  2.52773511371137
 6  12.81606472317232  1.10413363416342  1.34459751075108
 6  12.64281058725873  0.34200307360736 -2.11989593739374
 6 -4.76395289098910  2.14417692369237 -0.33163801270127
 6  9.96466765426543  0.63645444824482 -0.02386356305631
 6 -3.37928308670867  2.46213496719672 -0.38294855555556
 6  8.70724051005100  1.02791912571257 -0.10516485648565
 6 -3.12694437953795  3.97226868636864 -0.66326605870587
 6 -2.31511842694269  1.55061691039104 -0.28580111481148
 6  7.41970151265127  0.22200278827883  0.02597341324132
 6  7.70239497599760 -1.25381233333333  0.15247517041704
 6  6.25461680968097  0.83049998029803 -0.01716565256526
 6 -0.98268239973997  1.97168629232923 -0.46228440354035
 6  4.97531913471347  0.23732284838484 -0.12141077227723
 6  0.07304378337834  1.05543885378538 -0.21665076787679
 6  3.88893830153015  1.01815216561656 -0.12329979897990
 6  1.44351629242924  1.27927965566557 -0.33095547644764
 6  2.48494639513951  0.45335463516352 -0.11414805690569
 6  2.30768062976298 -0.96403058335834  0.18831742534253
 1 -12.63587538833883 -2.86891986978698 -0.93365858985899
 1 -13.61523674737474 -1.55323930813081 -1.67755421012101
 1 -13.94221202340234  0.13430049884989  1.92478516121612
 1 -13.83185257885789  0.44923005010501  0.17092475807581
 1 -14.65278258235823 -1.64798351175117  0.41543314761476
 1 -10.34499311621162 -2.86907369016902 -1.42334763016302
 1 -10.99069927882788 -2.11085587698770 -3.22149043524352
 1 -9.63422560606061 -1.44208341694169 -2.36660827332733
 1 -9.20947960276028  1.15394752575258 -0.58580239033903
 1 -10.17915924352435  0.12160342444244  2.24128987178718
 1 -11.89436479737974  0.41985868746875  3.07283563366337
 1 -11.45932662636264 -1.33670054655466  2.40721151085109
 1 -12.18814135663566  2.47273339533953  0.12629584558456
 1 -12.17087332673267  2.19880545604560  2.06392010381038
 1 -10.88388867096710  2.17909850035003  1.01660595409541
 1 -12.10096316881688 -2.55378825242524  1.50914539343934
 1 -8.93331417331733 -1.68006636433643  0.62188128702870
 1 -5.46107555365537 -2.02315564066407 -0.31289933433343
 1 -5.61440385568557 -1.48308354095410  1.43977237343734
 1 -6.86088619921992 -2.73316558955896  0.75941209200920
 1 -7.24471578267827  1.55533386248625 -0.28774845134513
 1 -4.54823146784678  0.09025764416442  0.09617584188419
 1  13.07278295539554 -1.55179686708671  2.47783272387239
 1  11.84725990299030 -2.32962234223422  1.76970296999700
 1  13.65437779467947 -2.88279994499450  0.58690561646165
 1  12.77729516801680 -2.50586706520652 -1.68969206390639
 1  11.62073208140814 -2.59549867376738 -0.76796213831383
 1  11.38733834203421  0.23211357805781  3.50137517621762
 1  10.48306528422842  1.15973153625363  2.20728825302530
 1  10.11386900810081 -0.49203751825183  2.74778101930193
 1  13.53616051795180  1.11218984318432  0.52871693649365
 1  12.01919453265327  1.93982342014201  1.49645435113511
 1  13.40039587668767  0.90490496959696  2.31456793839384
 1  12.66276709620962 -0.31102771237124 -3.05072752465247
 1  12.06395346374637  1.16480857175718 -2.27782571747175
 1  13.53616444904490  0.45131118401840 -1.67153263866387
 1 -5.53899612351235  2.85779016581658 -0.59980139093909
 1  10.05642689328933 -0.40389904750475 -2.27767010281028
 1  14.94201704690469 -0.59973978837884  0.67701630093009
 1  8.60190204100410  2.16864919211921 -0.39817709490949
 1 -2.70282536673667  4.32332878257826  0.31868769846985
 1 -2.13139190349035  4.29673689848985 -1.24708781788179
 1 -4.05960234533453  4.39017719951995 -0.91261106260626
 1 -2.58521814191419  0.52669488148815 -0.21482443704370
 1  6.76010876077608 -1.78032759485949  0.18092057675768
 1  8.41881709620962 -1.65181990679068 -0.66968774287429
 1  8.20629055065507 -1.60367269566957  0.99866362726273
 1  6.31376652375238  1.87873167856786 -0.11925394509451
 1 -0.50815217221722  2.93539758325833 -0.45589550105011
 1  4.79195518191819 -0.79072556925693 -0.40505782468247
 1 -0.38375729892989  0.05118330543054 -0.05289267816782
 1  3.95561472937294  2.03144878107811 -0.11280350535053
 1  1.83743061826183  2.42859865176518 -0.34821752015202
 1  1.09829866466647 -1.28083468766877  0.37303629922992
 1  2.56900822562256 -1.72857915941594 -0.40413818381838
 1  2.89063575997600 -1.26477070607061  0.98543182978298
=======
>>>>>>> 6a1b998aacd80a23911c140f266e48a14f2d523d

