%nproc=3
%Mem=2GB
# td=(NStates=1) CAM-B3LYP/6-31G(d,p) 

TD

0 1
<<<<<<< HEAD
 8 -11.78570523812381  0.29161981038104 -1.43508067166717
 8 -12.85053588938894 -2.57717602560256  1.30756644164416
 8  10.50906642654265 -0.89972986088609 -2.09508323462346
 8  14.37659102580258 -1.28939766126613 -0.18792327972797
 6 -11.03972213941394 -0.14897885258526 -0.32359178357836
 6 -11.77440373007301 -1.14285546544654 -1.21959079937994
 6 -11.69351139413941  0.30807749054906  1.05396505150515
 6 -13.08625382908291 -1.73341349924992 -0.99513114711471
 6 -13.10386884488449 -0.25398284588459  1.12306699459946
 6 -13.41658809230923 -1.54770630843084  0.58083685098510
 6 -10.89514510321032 -1.88059347684768 -2.33309562786279
 6 -9.56218566236624  0.05851298509851 -0.38910586868687
 6 -10.93500947834783 -0.50780637663766  2.24848991609161
 6 -11.54514489478948  1.68810391349135  1.21509960166017
 6 -8.60542396409641 -0.74122216341634  0.09419815881588
 6 -7.12670065966597 -0.55891773787379  0.12501020132013
 6 -6.13177719261926 -1.60473916271627  0.43939617591759
 6 -6.62873853555355  0.67104793469347 -0.27316587178718
 6 -5.23072301390139  0.91577361406141 -0.32436676687669
 6  11.89250849774978 -0.08475844634463  1.29455898399840
 6  11.62999028912891 -0.62728888408841 -1.26905078477848
 6  12.56264349244925 -1.35796002570257  1.48062279567957
 6  13.24298898559856 -1.99080361376138  0.22245621002100
 6  12.24514944964496 -1.94890939993999 -0.99578354085409
 6  11.07015390329033  0.09852460036004  0.05138231853185
 6  11.01169257415741  0.14173081508151  2.54914725492549
 6  13.03433655035504  1.05096831763176  1.19443249424942
 6  12.57730403660366  0.34579345264526 -2.06221016881688
 6 -4.69184568026803  2.20761326732673 -0.62601745064506
 6  9.85794698219822  0.55675647844784 -0.06517769446945
 6 -3.33710886928693  2.63377213091309 -0.77976823752375
 6  8.59630941694169  1.02659899369937 -0.04833917391739
 6 -3.09330101520152  4.01073253275328 -1.09217894999500
 6 -2.32516943204320  1.72094394309431 -0.55397793249325
 6  7.39112865536554  0.15113570157016  0.17199801570157
 6  7.66925166166617 -1.16942389448945  0.43959388228823
 6  6.18720006800680  0.79752668296830  0.03947001100110
 6 -0.91835596709671  2.02484160786079 -0.42984115921592
 6  4.90347194999500  0.26204532063206  0.23893526232623
 6  0.07129360836084  1.10020333023302 -0.13088219101910
 6  3.70155956365637  0.96815716611661  0.09055158615862
 6  1.42581452225223  1.36383811151115 -0.06022840374037
 6  2.38667656815682  0.42366166586659  0.21371472937294
 6  2.10787064876488 -0.87866204650465  0.77628622222222
 1 -13.07493929472947 -2.72716569436944 -1.05488071207121
 1 -13.89418464216422 -1.49301328552855 -1.71667812251225
 1 -13.58088589078908 -0.25572850405041  2.14195687838784
 1 -13.72688208180818  0.38026315341534  0.65588325392539
 1 -14.63742104620462 -1.54451316471647  0.50448205250525
 1 -10.73054167106710 -2.96982376517652 -2.06026132153215
 1 -11.59156936583658 -1.72465725712571 -3.27901618781878
 1 -10.12580476397640 -1.40255946454646 -2.58287990049005
 1 -9.52966162096210  1.00420255125513 -0.77698150825082
 1 -9.85215654325433 -0.04760349624963  2.20824656745675
 1 -11.31995735663566 -0.12740603900390  3.18488683878388
 1 -11.07772846654665 -1.67185406190619  2.14248503820382
 1 -12.16531907440744  2.09754587658766  0.40878409440944
 1 -12.09890613001300  2.06838241374137  2.18997270907091
 1 -10.43898418051805  2.21734232473247  1.12653694719472
 1 -11.99057212971297 -2.65684855845585  1.10133461236124
 1 -8.84213505540554 -1.64559291699170  0.60732983188319
 1 -5.69398884498450 -2.00805413051305 -0.47405544994499
 1 -5.46648906420642 -1.28010324292429  1.22785118131813
 1 -6.51339144974497 -2.57601987498750  0.84252040284028
 1 -7.46300761186119  1.32874120322032 -0.44781445794579
 1 -4.63398004270427  0.12435105350535 -0.09027280298030
 1  13.35153083018302 -1.22948463586359  2.23926886748675
 1  11.84831000800080 -2.03917329732973  1.71814781448145
 1  13.48853121002100 -3.02368403340334  0.45419234513451
 1  12.81283872237224 -2.50129660816082 -1.76841993669367
 1  11.58620862906291 -2.63124224812481 -0.41386672877288
 1  11.83460306850685  0.39632999969997  3.38359339803980
 1  10.39022600030003  0.99642520562056  2.54079160336034
 1  10.27390501170117 -0.83366168066807  2.86236247744774
 1  13.78608551045104  0.95700432463246  0.44926899169917
 1  12.32646525972597  2.10545998379838  1.45173987968797
 1  13.70985682278228  0.94940942004200  2.08492497409741
 1  12.86918773827383 -0.26821343094309 -2.89110156205621
 1  12.24717178557856  1.36840893179318 -2.37231516641664
 1  13.68392922552255  0.50887694059406 -1.58120360576058
 1 -5.39075129902990  3.15166955375538 -0.72932434323432
 1  10.00134138473847 -0.13214187178718 -2.41287362316232
 1  14.83492633783378 -1.25609542394239  0.62154075337534
 1  8.43485533633363  2.12567489468947 -0.35633291049105
 1 -2.60989607380738  4.51411786148615 -0.31499566986699
 1 -2.39950871517152  4.17411463626363 -1.93378648774878
 1 -4.03336972207221  4.57566574837484 -1.15575537703770
 1 -2.49146876697670  0.73952616461646 -0.18679163376338
 1  6.79195194509451 -1.88262782488249  0.27426991169117
 1  8.36641185568557 -1.82925765056506 -0.15043581768177
 1  8.18355827742774 -1.21069339773977  1.44201796269627
 1  6.41052619971997  1.83204701010101 -0.23874589428943
 1 -0.64328568556856  3.02860690419042 -0.56175608710871
 1  4.93833982038204 -0.79132562926293  0.04680736183618
 1 -0.36603552675268  0.06596478357836 -0.01505889478948
 1  3.96168533643364  1.91704734093409 -0.05267749274928
 1  1.71023789898990  2.50691648354836 -0.02901559996000
 1  0.97664649944994 -1.09251585578558  1.43915291089109
 1  1.96521784658466 -1.60446674817482 -0.21363913391339
 1  3.10702739913991 -1.14206843584358  1.30304359095910
=======
>>>>>>> 6a1b998aacd80a23911c140f266e48a14f2d523d

