%nproc=3
%Mem=2GB
# td=(NStates=1) CAM-B3LYP/6-31G(d,p) 

TD

0 1
 8 -11.56314298189819  0.08441909030903 -1.66758392199220
 8 -13.19797063286329 -2.38016632463246  1.46329201420142
 8  10.65245076497650 -0.99925981388139 -2.29558328462846
 8  14.54674804150415 -1.06776549804981 -0.08339282668267
 6 -11.00544871207121 -0.18096205090509 -0.32974239863986
 6 -11.61371766146615 -1.27253843374337 -1.29364820512051
 6 -11.81547359035904  0.40719740254025  0.81762141714171
 6 -12.97600280398040 -1.94840499839984 -0.99471110511051
 6 -13.29329778777878  0.07325987838784  0.71488617651765
 6 -13.59374580808081 -1.50778231603160  0.37985675297530
 6 -10.73818940764076 -2.10052547004700 -2.15445776407641
 6 -9.56482592639264  0.02180931473147 -0.45406236433643
 6 -11.28964494189419 -0.00437603360336  2.13003807090709
 6 -11.74556493679368  1.95305040814081  0.72911100280028
 6 -8.64242766446645 -0.75421346254625  0.33036177517752
 6 -7.16683467306731 -0.50906275237524  0.23779147944794
 6 -6.22163617851785 -1.72541122992299  0.37698993529353
 6 -6.56378203990399  0.70130095999600 -0.00973952915292
 6 -5.23524346594659  1.02331436813681 -0.03364769496950
 6  11.90876012291229  0.01893192269227  1.22487201530153
 6  11.62534982508251 -0.62779893509351 -1.29069294899490
 6  12.57311453955396 -1.33737796749675  1.39744447784778
 6  13.41784647134713 -1.82366690009001  0.17904186858686
 6  12.55194012871287 -1.83706821582158 -1.03319728222822
 6  11.03523041094109 -0.07982323442344 -0.03756657635764
 6  10.90511191609161  0.22764940694069  2.43109544974497
 6  12.92909602630263  1.21729495029503  1.22255530653065
 6  12.54993129932993  0.37084595789579 -2.09287323512351
 6 -4.64066056175618  2.28796130213021 -0.20737558645865
 6  9.82924411191119  0.42628343114311 -0.01302247894789
 6 -3.32599775817582  2.58467722142214 -0.38419868056806
 6  8.66469625562556  0.96486282008201 -0.17815215521552
 6 -2.99520120522052  4.05877733723372 -0.55200493259326
 6 -2.29308622372237  1.61459330803080 -0.05388792349235
 6  7.41423096559656  0.22129271727173  0.03078389428943
 6  7.60309504600460 -1.17765471757176  0.36857678057806
 6  6.20380172817282  0.78586551685169 -0.13957789378938
 6 -1.02031616311631  1.88959808350835 -0.25829400450045
 6  4.97301890469047  0.17266638273827 -0.03764239543954
 6  0.03478995799580  0.90405371527153  0.11346224342434
 6  3.74549395709571  0.77161751215122 -0.03944141314131
 6  1.37438937973797  1.16711843954395 -0.01699408030803
 6  2.44652255275528  0.33167246694669  0.16280963886389
 6  2.26526638833883 -1.15098927922792  0.51178977257726
 1 -12.69633143394339 -3.05537851565156 -1.11784700870087
 1 -13.69213443714371 -1.64703868806881 -1.65939239393939
 1 -13.70459826202620  0.49408647744774  1.79552223492349
 1 -13.76874626822682  0.64006913401340 -0.08998133253325
 1 -14.59780708480848 -1.67781649504950  0.07790939523952
 1 -10.68222683958396 -3.16788357115712 -1.55073036843684
 1 -11.07372758165817 -2.37028181958196 -3.12049033523352
 1 -9.64738692219222 -1.70903011161116 -2.03976558905891
 1 -9.33998265306531  0.73352548354835 -0.97451126122612
 1 -10.26873820142014  0.20740200430043  2.36898264106411
 1 -11.86874223512351  0.49666636823682  2.95183353345335
 1 -11.31984267796780 -1.09686656315632  2.38954974467447
 1 -12.05384792729273  2.48857497949795 -0.14223100710071
 1 -12.26395263466347  2.27287286278628  1.52079579137914
 1 -10.84551483358336  2.25386597709771  0.99103339683968
 1 -12.30252332483248 -2.76787966156616  1.23565804470447
 1 -8.98050889278928 -1.64721307900790  0.81878097699770
 1 -5.48835828192819 -1.85316864196420 -0.52686073047305
 1 -5.47000941624162 -1.69452468506851  1.06018441464146
 1 -6.82239234983498 -2.60637291029103  0.43452960376038
 1 -7.10920223132313  1.42053038213821 -0.24979465596560
 1 -4.56210285498550  0.25644426282628  0.30676690099010
 1  13.17391306840684 -1.42317400480048  2.25087002760276
 1  11.74928010501050 -2.04061344134414  1.44422042174217
 1  13.70892324922492 -2.92557422242224  0.55310223612361
 1  13.19073651215122 -1.98748522702270 -2.02150524522452
 1  11.74230423862386 -2.59361848574857 -0.85052039413941
 1  11.53952356055606  0.13249361606161  3.37898293699370
 1  10.45323230093009  1.16122168526853  2.14522204640464
 1  10.10742836403640 -0.49155747024702  2.45942218341834
 1  13.46712361426143  1.11228985318532  0.18612267706771
 1  12.35168778197820  2.17447688548855  1.37608231393139
 1  13.66992282938294  0.97852233133313  2.06501298289829
 1  12.91263208270827 -0.19655626522652 -2.88900135203520
 1  12.08364543294329  1.40609270017002 -2.34737267216722
 1  13.54102493509351  0.37912396529653 -1.42700818621862
 1 -5.42076430033003  3.04669905670567 -0.32921433223322
 1  10.17826907750775 -0.22404106170617 -2.43881621742174
 1  15.18846169136914 -0.93868368276828  0.60644924422442
 1  8.53937578837884  1.96869919711971 -0.31900917811781
 1 -2.66239132333233  4.37738418811881  0.45837166686669
 1 -2.14678344264426  4.04065128992899 -1.32706581568157
 1 -3.86971335643564  4.55682386418642 -1.05443524502450
 1 -2.65834545464546  0.67817002900290  0.34297134253425
 1  6.63527627752775 -1.79758932103210  0.43930641534153
 1  8.43615883038304 -1.59421414621462 -0.16934770887089
 1  7.96874679627963 -1.20780310871087  1.37501126202620
 1  6.20640578767877  1.99901370677068 -0.59325134483448
 1 -0.74653601060106  2.91755579907991 -0.55148506000600
 1  4.80545653205320 -0.82340883758376  0.51389407050705
 1 -0.35861478467847 -0.19689150205020  0.43587619871987
 1  3.75578474637464  1.82991862806281 -0.54795702070207
 1  1.63813068826883  2.05813160506051 -0.29033173157316
 1  1.30999983478348 -1.51242784698470  0.61049004460446
 1  2.65730705550555 -1.97672397389739 -0.18347611761176
 1  2.83118981538154 -1.25153938293829  1.56107939453945

