%nproc=3
%Mem=2GB
# td=(NStates=1) CAM-B3LYP/6-31G(d,p) 

TD

0 1
 8 -11.76542320992099  0.40047069546955 -1.36324348794879
 8 -12.99276011181118 -2.71753006100610  1.14710039503950
 8  10.47829334923492 -1.15076496439644 -1.85740946724672
 8  14.57399076577658 -0.92104082558256 -0.22445693309331
 6 -11.03981214841484 -0.12704665936594 -0.21310073447345
 6 -11.63456974667467 -1.13110429032903 -1.29769861016102
 6 -11.85121716471647  0.19308599139914  1.14683433843384
 6 -13.10022522622262 -1.59768992689269 -1.04323595759576
 6 -13.30767922592259 -0.24298174577458  1.13754844274427
 6 -13.54598103160316 -1.66983852165217  0.43286205350535
 6 -10.83865945464546 -1.89108452595260 -2.18185050335034
 6 -9.56112555635564  0.10959809360936 -0.24166112421242
 6 -11.09997597499750 -0.41325692169217  2.41458652575258
 6 -11.73890427072707  1.73503860696070  1.34164225592559
 6 -8.57963138483848 -0.57141518271827  0.25201394039404
 6 -7.20944893449345 -0.33040488658866  0.23983168346835
 6 -6.36072008690869 -1.47770645944594  0.55227746404640
 6 -6.57641330303030  0.83229405930593 -0.14182273747375
 6 -5.14417435903590  1.05001703840384 -0.24720905110511
 6  11.89119836673667  0.03589361886189  1.48654818291829
 6  11.60378766886689 -0.64268042324232 -1.16267014671467
 6  12.80402763086309 -1.21433566326633  1.55054978837884
 6  13.42985767246725 -1.75143967736774  0.24539850425042
 6  12.48384331903190 -1.89794430343034 -0.95282924542454
 6  11.02305919381938 -0.07335258735874  0.17932511281128
 6  11.08067947284728  0.23425006700670  2.69822216241624
 6  12.91592470917092  1.21522474327433  1.35666871787179
 6  12.29714602080208  0.47657653095310 -1.89798374617462
 6 -4.69102559825983  2.23351585758576 -0.63174802370237
 6  9.88930011751175  0.42801360416042  0.11930075337534
 6 -3.34687984638464  2.59878863256326 -0.68000826152615
 6  8.63243302930293  0.95943227702770 -0.06009034903490
 6 -2.89656134123412  3.97748920842084 -1.13329306140614
 6 -2.24989190429043  1.65873772247225 -0.49760229492949
 6  7.48153769626963  0.06373696169617  0.02304312021202
 6  7.58368310481048 -1.40891784388439  0.28572849574957
 6  6.27303865186519  0.66330326062606 -0.15983991999200
 6 -0.93904803630363  1.92525164886489 -0.50046822192219
 6  4.95123672647265  0.12534165026503 -0.09372800400040
 6 -0.01173469446945  0.96989029892989 -0.29879898269827
 6  3.77060646834683  0.76378672907291 -0.16703417241724
 6  1.35775771657166  1.23455518321832 -0.28041042194219
 6  2.44941284178418  0.20923022272227 -0.14908155025503
 6  2.25385524722472 -1.30623480378038  0.13692228582858
 1 -13.34003580438044 -2.51279425722572 -1.38660388438844
 1 -13.82299752345234 -0.90150413461346 -1.50356681138114
 1 -13.67379518171817 -0.38798172937294  2.21174385708571
 1 -13.89747914151415  0.48381350845085  0.60814848044804
 1 -14.58713601770177 -1.56570528392839  0.58581018531853
 1 -10.35003362026202 -2.62678946174617 -1.78508380378038
 1 -11.50392060096010 -2.27795258665867 -3.01500978717872
 1 -10.12005418891889 -1.35558476707671 -2.48770038253825
 1 -9.42110076487649  1.14481661266127 -0.68378218831883
 1 -10.07971929952995  0.18290955505551  2.67945368816882
 1 -11.87211257215722 -0.26461976037604  3.34497284738474
 1 -10.96391708540854 -1.54445132163216  2.35653644334433
 1 -12.25702824532453  2.28655477747775  0.51849506550655
 1 -12.57177341674167  1.91164674017402  2.22239595139514
 1 -10.55023530563056  2.18873946444644  1.44983927742774
 1 -12.04645771827183 -2.44089696329633  1.12187666656666
 1 -8.86524736663666 -1.52437079477948  0.66757585648565
 1 -5.64578402450245 -1.53515684078408 -0.39722776717672
 1 -5.80307272257226 -1.35192042464246  1.43162155835584
 1 -7.14862497309731 -2.32699497249725  0.71231738253825
 1 -7.22467377847785  1.58569689878988 -0.27807748424842
 1 -4.53429007370737  0.19621824022402 -0.06922069776978
 1  13.72107778487849 -1.28643033043304  2.19880482108211
 1  12.03594877187719 -2.09345872587259  1.82568856855686
 1  13.93416577347735 -2.72217388238824  0.41227815371537
 1  12.88857629612961 -2.29165564406441 -1.83086618131813
 1  11.70644065226523 -2.61275039893989 -0.61393673577358
 1  11.73995360356036  0.29024939163916  3.49862490119012
 1  10.68536551425142  1.18811437453745  2.74545206940694
 1  10.24606222742274 -0.48259657415742  2.90813705490549
 1  13.81135803770377  1.20899952415242  0.61176524132413
 1  12.41232384558456  2.22339177697770  1.33279798549855
 1  13.38473431053105  1.15745022412241  2.43392987458746
 1  12.52464328382838  0.16516990739074 -3.02862531443144
 1  11.53588065646565  1.07012910381038 -2.02016995189519
 1  13.05780661326133  0.96831288418842 -1.32582806820682
 1 -5.36739896379638  3.03286767356736 -0.87643905470547
 1  9.89128037863786 -0.31601025862586 -2.26841917771777
 1  15.24845769096910 -0.86256607100710  0.60782938223822
 1  8.68218006880688  1.93257558475848 -0.45332260946095
 1 -2.29012409660966  4.58002445214522 -0.35115928622862
 1 -2.32363112741274  4.07457468226823 -2.14752786188619
 1 -3.78933531863186  4.54828301010101 -1.29969977147715
 1 -2.62020164026403  0.59964217621762 -0.41204415901590
 1  6.55212796269627 -1.88848841094109 -0.08121563686369
 1  8.52257747224722 -1.95774049884989 -0.12775354945495
 1  7.50443036463646 -1.89925225362536  1.39496325722572
 1  6.37185233233323  1.91254505990599 -0.29405142484248
 1 -0.50881223822382  3.07737178067807 -0.61448135963596
 1  4.84015000140014 -0.87914441114111  0.12774545564556
 1 -0.31018994219422 -0.06700851375138 -0.16576396529653
 1  3.87834700260026  1.88135377157716 -0.34647687268727
 1  1.42416929212921  2.30056584848485 -0.32475517391739
 1  1.32150098489849 -1.55445204940494 -0.01740274467447
 1  3.12663398819882 -1.65827212871287 -0.53834160416042
 1  2.68183487988799 -1.49643387238724  1.23216650325033

