%nproc=3
%Mem=2GB
# td=(NStates=1) CAM-B3LYP/6-31G(d,p) 

TD

0 1
<<<<<<< HEAD
 8 -11.82952962056206  0.11195184358436 -1.68355551915192
 8 -12.78686952275227 -2.52017032503250  1.41824750975098
 8  10.68201372127213 -1.08602849074907 -2.11141486778678
 8  14.56300966766677 -1.01039976147615 -0.14055854325433
 6 -11.08616678387839 -0.17999195389539 -0.52007143154315
 6 -11.66176246594659 -1.21201238113811 -1.23306214651465
 6 -11.90317236023602  0.37698438123812  0.70767042204220
 6 -13.06829203290329 -1.84559471737174 -0.88254988898890
 6 -13.39460791879188 -0.17717516511651  0.80606529442944
 6 -13.49035546904690 -1.71173271107111  0.49513828112811
 6 -10.80606619531953 -2.19549496699670 -2.12305462376238
 6 -9.61786122992299  0.16353348714871 -0.40445740384038
 6 -11.14536051345134  0.13261766576658  2.02239730683068
 6 -11.92597297759776  1.96167127022702  0.60914900660066
 6 -8.73287670937094 -0.63535157635764  0.25815455445545
 6 -7.24266225582558 -0.47733958005801  0.23265096539654
 6 -6.45215923082308 -1.71312000080008  0.52244448074807
 6 -6.64074973667367  0.79647047694769  0.04869631443144
 6 -5.25418536013601  1.00783281998200  0.03383905370537
 6  11.88187743464347 -0.03254322482248  1.26906643474347
 6  11.73648093819382 -0.59706586178618 -1.28559243894389
 6  12.80084731283128 -1.35680991069107  1.54122885628563
 6  13.46103078977898 -1.87348188158816  0.20683464786479
 6  12.49715465016502 -1.95008951795180 -0.89632359485949
 6  11.12831971987199  0.03322807070707  0.03464064436444
 6  11.01451285618562  0.25244188618862  2.44620696089609
 6  12.89027214391439  1.12567578837884  1.33682673367337
 6  12.54160046624662  0.32451132443244 -2.00235418321832
 6 -4.71571806750675  2.23773627962796  0.00407555865587
 6  9.89264045154516  0.45605640844084 -0.10257143384338
 6 -3.31037619601960  2.51301005470547 -0.17074733543354
 6  8.61751153715371  0.90360669446945 -0.24221856185619
 6 -3.13459514461446  4.09171063056306 -0.30951068316832
 6 -2.30029694479448  1.64899674837484 -0.11652418711871
 6  7.41844138663866  0.16978756675668 -0.05318450255025
 6  7.65757049354935 -1.23812076417642  0.30327024992499
 6  6.26295764376438  0.75183211351135 -0.19136307230723
 6 -0.97279141064106  1.92140126382638 -0.25968414351435
 6  4.96177778057806  0.15678479457946 -0.10133876507651
 6  0.07833431243124  0.93329663956396 -0.17365646844684
 6  3.80338974667467  0.85418576897690 -0.24988245724572
 6  1.40599254005401  1.22113384108411 -0.26801918281828
 6  2.46727462796280  0.40066936663666 -0.00845748784878
 6  2.29997985968597 -1.08332251255125  0.40116871047105
 1 -13.13825562636264 -2.92431540934093 -1.17177240124012
 1 -13.72563778747875 -1.40524450865086 -1.60576703140314
 1 -13.73948175037504  0.13106017481748  1.66055873857386
 1 -13.92924231783178  0.47273240034003  0.04969263486349
 1 -14.50475777987799 -2.11499021242124  0.63016462076208
 1 -10.09350796769677 -2.95074185698570 -1.46492178757876
 1 -11.40643085198520 -2.82093688508851 -2.99368765496550
 1 -9.98350053355336 -1.42065127372737 -2.68382999549955
 1 -9.21025968076808  0.89507163816382 -1.18729253935394
 1 -10.24898622622262  0.79283054715472  2.05749149194919
 1 -11.59827518841884  0.58883558515852  2.89373772387239
 1 -10.96254694839484 -0.96426330283028  2.61686247594759
 1 -12.15881842434244  2.52681880388039 -0.35951273527353
 1 -12.54871111051105  2.33203877937794  1.46139985178518
 1 -10.73093337543754  2.36231682218222  1.02062635613561
 1 -11.87692076457646 -2.30374324792479  1.28333281218122
 1 -9.08022886478648 -1.62907126482648  0.60589968886889
 1 -6.00271971807181 -1.96076940204020 -0.40216826122612
 1 -5.66794921022102 -1.63634886748675  1.24265266146615
 1 -6.90242035263526 -2.66051832483248  0.78171432223222
 1 -7.32191350245025  1.73786211531153  0.10798112161216
 1 -4.53259990469047  0.14250286868687 -0.03530730643064
 1  13.43496917401740 -1.22413410081008  2.41627656825683
 1  12.08730390739074 -2.09948932893289  1.73881988168817
 1  13.66364872177218 -2.72451411641164  0.56975390129013
 1  12.88380581908191 -2.16477295579558 -1.80912400710071
 1  11.84429443764376 -2.78627775167517 -0.80239558165817
 1  11.67750735893589  0.12837320402040  3.34326936563656
 1  10.46508348604860  1.13214877797780  2.53964148834883
 1  10.05119274047405 -0.34044235873587  2.44820106130613
 1  13.57971487338734  0.88036666086609  0.57592165696570
 1  12.52546515971597  2.19965940374037  1.25110981668167
 1  13.66356219331933  1.06143062216222  2.25145162676268
 1  13.24929574907491 -0.14647125672567 -2.77541999389939
 1  11.79574664306431  1.15599769066907 -2.41600953585359
 1  13.36110694329433  0.68989504240424 -1.35978146354635
 1 -5.32069429332933  3.07248163496350 -0.04217562836284
 1  9.94454570517052 -0.55030368796880 -2.30828316411641
 1  15.23008585378538 -0.83152296669667  0.58973757305731
 1  8.55073692449245  2.04417674487449 -0.56058333553355
 1 -2.53804888908891  4.35574202390239  0.58526435613561
 1 -2.34564332863286  4.20141736653665 -1.07883099219922
 1 -4.05313169826983  4.72754093589359 -0.51742154365436
 1 -2.52056167626763  0.72076428842884  0.19619666506651
 1  6.71113386328633 -1.75991555365537  0.57737022172217
 1  8.01913712821282 -1.86026075087509 -0.52701347544754
 1  8.22566248784879 -1.60693302170217  1.28271203210321
 1  6.07087223432343  1.79708351375138 -0.59670168986899
 1 -0.74261561856186  2.98732277577758 -0.47350726222622
 1  4.89087507390739 -0.96306280298030  0.04597727882788
 1 -0.37398632183218  0.01220940804080 -0.01596898579858
 1  4.05350451835184  1.89960559675968 -0.59740196519652
 1  1.65379225442544  2.29256504840484 -0.62017471587159
 1  1.28825766056606 -1.21160776497650  0.69830882648265
 1  2.69442076687669 -1.86650295179518 -0.33005077507751
 1  2.86213290969097 -1.16043027202720  1.21378466506651
=======
>>>>>>> 6a1b998aacd80a23911c140f266e48a14f2d523d

