%nproc=4
%Mem=2GB
# td=(NStates=1) B3LYP/SVP 

TD

0 1
 8 -5.43530889268927  0.13542765776578 -3.32841567436744
 8  2.92072889898990  3.01294701810181  3.24733099749975
 8  3.13587432523252  0.78961397049705  3.37067902910291
 8  1.57891202710271 -7.24876078047805  1.55159556935694
 8  0.52978972837284 -7.01160206420642 -0.48439237043704
 8  1.97665112441244  4.04641760876088 -0.10038177377738
 7 -2.28964956765677 -0.87748275487549  0.61035756285629
 7 -4.53432733663366  0.55715996459646 -1.29511144324432
 7  1.89599932703270 -0.58770075107511 -0.35103654175418
 7  2.68917018741874  1.83497194729473 -0.58774624962496
 6 -4.83791603790379  1.23936411581158  0.01417187368737
 6 -4.40015462086209  0.34078049574957  1.19974203490349
 6 -2.98399185538554  0.08061294369437  1.30383572367237
 6 -2.00783582788279  0.79287143414341  2.07620841904190
 6 -0.72418630613061  0.16127756925693  1.76166492869287
 6 -0.99590396539654 -0.82435754485449  0.77390409870987
 6 -6.33039913731373  1.37237899379938 -0.14519293309331
 6  0.48431191449145  0.26115403850385  2.62574724352435
 6 -6.84873730543054  0.99116142134213 -1.39971082878288
 6 -0.14244998699870 -1.86276157725773  0.18425560126013
 6  1.21175408660866 -1.77269978257826 -0.19487828102810
 6 -5.57839589768977  0.55208490169017 -2.20950039083908
 6  1.90100597049705 -2.81546512251225 -0.82116743334333
 6 -2.22451919311931  1.71733346534653  3.08431707170717
 6 -7.24112610481048  1.94545008100810  0.98592920682068
 6  3.05877140544054 -2.42980500480048 -1.28786994409441
 6  1.15301207380738  1.65435857805781  2.48123334173417
 6  3.11501804280428 -0.94274371377138 -0.90327395839584
 6  1.48841437933793 -4.27476185578558 -0.91137961186119
 6 -8.07739446034604  0.75949051345134 -2.02830755275528
 6  1.70890258035804 -5.06650289268927  0.44631095759576
 6  4.26120383678368 -3.12118338413841 -1.73445544294429
 6  4.01685062726273  0.04100576237624 -1.42060225532553
 6  2.46573918931893  1.62723689798980  3.04842474757476
 6  3.80439496539654  1.37451670797080 -1.16870264096410
 6 -9.30253842684268  0.75810365416542 -1.58160692329233
 6  1.16461376977698 -6.52991172067207  0.44584537723772
 6  4.82085615051505  2.56609866486649 -1.56599032553255
 6  4.08802443694369  3.63391755195520 -1.21792136343634
 6  2.74116287228723  3.27995969736974 -0.64740328732873
 6  6.18776678107811  2.24846671807181 -2.01705323412341
 6  4.48866966036604  5.13207472467247 -1.32198487038704
 6  7.11713926532653  3.11099752115212 -2.33782845094509
 1 -4.19975792649265  2.10435548044804  0.00616015801580
 1 -5.00510893999400 -0.64357934903490  1.06956820512051
 1 -4.62270238943894  0.95478970807081  2.13184531903190
 1 -2.84113152355236 -1.53453031053105 -0.13966635793579
 1 -3.54669036233623  0.36376945314532 -1.70449764706471
 1  0.42019860416042  0.16540651415141  3.73706903910391
 1  1.31168961296130 -0.60191007500750  2.49935825622562
 1 -0.63188368086809 -2.94506246954696  0.08567838623862
 1 -3.32303445544554  1.66945353065307  3.47941410901090
 1 -1.49663452285229  1.54869349684968  3.76074579917992
 1 -1.94816761606161  2.73989262506251  2.73033518751875
 1 -6.72859675477548  2.92160111221122  1.29885800460046
 1 -7.46847955625562  1.19201552995300  1.49005142774277
 1 -8.16667515881588  2.30801297139714  0.58043704090409
 1  1.14469665096510  2.06719932793279  1.46124613221322
 1  0.57693173327333  2.45173326112611  3.03625397989799
 1  1.60652627092709  0.33033942414241 -0.33880610671067
 1  2.06674493309331 -4.84244976817682 -1.51895995819582
 1  0.35251333173317 -4.34873478687869 -1.31841461116112
 1 -7.80922624762476  0.57246988098810 -3.20016092809281
 1  1.11521446154615 -4.77861216551655  1.18030771837184
 1  2.81734277717772 -5.15201168016802  0.81949588798880
 1  4.23959840364036 -4.24641216971697 -1.74526357895789
 1  5.21398351985199 -2.76628550935094 -1.31443636513651
 1  4.79655675197520 -2.97402945854585 -2.94504482678268
 1  4.88310111721172 -0.35517962676268 -2.10568725692569
 1 -9.56365588778878  0.86589748694870 -0.67202788898890
 1 -10.23601176627663  0.63937831623162 -2.28391813351335
 1  3.88447487888789  2.94288685728573  3.53780196239624
 1  6.33230823642364  1.06388059455946 -1.86503400660066
 1  4.63948495869587  5.26974006600660 -2.41910896589659
 1  3.63766177027703  5.86309337923792 -1.11750483368337
 1  5.33471524302430  5.34452090669067 -0.61295304340434
 1  1.22865040354035 -8.20388163066307  1.29094876797680
 1  8.00343162496250  2.88032533883388 -2.78373713591359
 1  6.94462590689069  4.24620219151915 -2.22198508760876

