%nproc=4
%Mem=2GB
# td=(NStates=1) B3LYP/SVP 

TD

0 1
 8 -5.29130449224922  0.00445456045605 -3.29364219701970
 8  2.90528735483548  2.99504522792279  3.19221548594859
 8  3.35311604940494  0.80860586968697  3.10815277647765
 8  1.57433156905691 -7.14486039043904  1.65567597739774
 8  0.58311506090609 -6.99063996799680 -0.42350628182818
 8  1.89614307360736  3.96911987898790 -0.08571030663066
 7 -2.45360596329633 -0.82523753035304  0.55522204930493
 7 -4.41189509340934  0.64790903950395 -1.25014694679468
 7  1.90179990709071 -0.66316829782978 -0.36957839593959
 7  2.71157242764276  1.79519796989699 -0.47826530153015
 6 -4.88934118041804  1.26055623502350 -0.00669021252125
 6 -4.53616822222222  0.37662408010801  1.20189224992499
 6 -3.05194865106511  0.09611449384939  1.38423376347635
 6 -2.03670871517152  0.68599074607461  2.10185098329833
 6 -0.78301218871887  0.11645308680868  1.82618138033803
 6 -1.08289266426643 -0.86901201030103  0.77814452275228
 6 -6.37953405080508  1.41603335923592 -0.32376078987899
 6  0.44250773407341  0.24476239933993  2.56772144094409
 6 -6.67837026872687  0.84194649984998 -1.45474633233323
 6 -0.23838958095810 -1.79882518361836  0.13712088778878
 6  1.03481639283928 -1.78128064066407 -0.34662345554555
 6 -5.41012907100710  0.39387908110811 -2.12937237803780
 6  1.83966983688369 -2.83829740574057 -0.97052236883688
 6 -2.29360610181018  1.64974670667067  3.27188582858286
 6 -7.20649264146415  2.03191872787279  0.77888850275028
 6  3.08453398169817 -2.36016804110411 -1.38449960706071
 6  1.12123889648965  1.69210235243524  2.50550576897690
 6  3.11069761076108 -0.93114255365537 -0.96876050705071
 6  1.44189972787279 -4.35614999459946 -0.93365183908391
 6 -8.08113483438344  0.72000656505651 -2.10171489348935
 6  1.92190388048805 -5.09796603900390  0.44507083358336
 6  4.21764948134813 -3.04253551935194 -1.91920391779178
 6  3.99962890509051 -0.01391973017302 -1.19062925802580
 6  2.58594120952095  1.71109528382838  2.93976388148815
 6  3.83626815271527  1.32184144044404 -1.03070884158416
 6 -9.29277745074507  1.10194803860386 -1.47603636623662
 6  1.35135244364436 -6.49155788528853  0.47813860656066
 6  4.80159422432243  2.55385744074407 -1.48896262276228
 6  4.03755939043904  3.65581974217422 -1.08877844914491
 6  2.75853460946095  3.20525222662266 -0.44981352835284
 6  6.19281728612861  2.24887675907591 -1.92875440424042
 6  4.38640943434343  5.16406792399240 -1.24741741364136
 6  6.98658621002100  3.11248767016702 -2.55551021912191
 1 -4.44635258595860  2.27796284118412  0.22304184618462
 1 -5.15199362846285 -0.54363935503550  1.40971221952195
 1 -4.79046916611661  0.96267049614961  1.99287142164216
 1 -2.91503891429143 -1.51068792629263 -0.13379577087709
 1 -3.44406009930993  0.61643471967197 -1.38868606590659
 1  0.23588017231723  0.19207918141814  3.66735206740674
 1  1.28296674067407 -0.71402128612861  2.42089040944094
 1 -0.67398789128913 -2.85692365566557  0.14221403980398
 1 -3.30327247924792  1.52646923222322  3.66061222882288
 1 -1.62267712711271  1.41231985948595  4.21721144574457
 1 -2.13740653995400  2.78106674247425  3.18900105410541
 1 -6.36771066616662  2.63089204130413  1.41053917271727
 1 -7.62561526982698  1.19227555595560  1.38132055465547
 1 -7.90248874017402  2.87322949304931  0.49346834403440
 1  1.08877105840584  1.90528313631363  1.36490649824982
 1  0.52765680578058  2.44396248404840  3.09219957445745
 1  1.52924854315432  0.19361575177518 -0.13611583768377
 1  1.88564682328233 -5.17356287948795 -1.63005106730673
 1  0.59039712011201 -4.38327824122412 -0.99611238093809
 1 -8.11417674267427  0.24521715571557 -3.23327423942394
 1  1.38545148524852 -4.64683898819882  1.22045173277328
 1  2.90200124302430 -5.31445792479248  0.46074001240124
 1  4.24829927372737 -4.18051558005801 -2.08550760336034
 1  5.08005012651265 -2.80678955975597 -1.21938686018602
 1  4.60548764506451 -2.72973502910291 -3.12578290059006
 1  4.83371617871787 -0.40430453925392 -1.79980666886689
 1 -9.22847236943695  1.49585048224822 -0.61868255445545
 1 -10.16509467456746  1.15213959235924 -2.06482622432243
 1  3.98754518591859  2.73696626522652  3.41095927812781
 1  6.54152915851585  1.29939414591459 -1.73792129532953
 1  4.32377338753875  5.47721081308131 -2.41083813881388
 1  3.59085708980898  5.81307837773777 -0.69496257945795
 1  5.46931870337034  5.60235669026903 -0.97787953605361
 1  0.98170570907091 -8.07380862336234  1.70555022812281
 1  8.01320260206021  2.68111541784178 -3.01960072227223
 1  6.89651109540954  4.07270484178418 -2.84990787988799

