%nproc=4
%Mem=2GB
# td=(NStates=1) B3LYP/SVP 

TD

0 1
 8 -5.23483884568457  0.37013112811281 -3.38395122792279
 8  2.73938076417642  3.08448417181718  3.26856312071207
 8  3.33267400520052  0.96231124022402  3.17086904810481
 8  1.97641177707771 -7.20259616401640  1.64552496229623
 8  0.71263801320132 -7.08792969696970 -0.25234916611661
 8  1.94441790109011  3.96505947294730 -0.00313204880488
 7 -2.39459006170617 -0.99505451205121  0.61627815491549
 7 -4.39073297719772  0.69573382198220 -1.24997692979298
 7  1.72750247734773 -0.68984096509651 -0.46741817991799
 7  2.62874414481448  1.90742919301930 -0.66422389738974
 6 -4.79443168946895  1.28948912831283  0.00288074457446
 6 -4.47460206560656  0.27065348304830  1.24218627932793
 6 -3.04293774997500  0.02914779717972  1.34623996409641
 6 -2.07256230053005  0.57211935893589  2.20560135833583
 6 -0.77866175367537 -0.01055961446145  1.87181594379438
 6 -1.03304767976798 -0.92648775787579  0.87911461976198
 6 -6.35868196559656  1.38932068796880 -0.19657807160716
 6  0.50526400970097  0.13964188728873  2.47845251405141
 6 -6.61951438313831  1.06114842004200 -1.46545740344034
 6 -0.27055279727973 -1.95256055715572  0.26329350505051
 6  1.00252316351635 -1.88108062066207 -0.34488328152815
 6 -5.39827788588859  0.65919561276128 -2.19573901470147
 6  1.90842671257126 -2.94407798379838 -0.77505282188219
 6 -2.31340808200820  1.63760549254926  3.21362000200020
 6 -7.28415040724072  1.95852138813881  0.89675028892889
 6  3.02845837413741 -2.41655367966797 -1.28480963806381
 6  0.98388516111611  1.62987612981298  2.39160437883788
 6  2.96943348434843 -0.93520295969597 -1.01350498149815
 6  1.35288082598260 -4.46758113771377 -0.80518899279928
 6 -8.03166988788879  1.00715527992799 -2.18979370137014
 6  1.79568125822582 -5.10508675107511  0.43606993349335
 6  4.17126484288429 -3.00703196899690 -2.06809880728073
 6  3.84457339953995  0.14417607940794 -1.45845604070407
 6  2.50899351475148  1.84024819911991  2.95089499459946
 6  3.70302482838284  1.46933618991899 -1.20379615031503
 6 -9.23239141214122  0.93872171597160 -1.58249701230123
 6  1.40745805420542 -6.59190792029203  0.57751854455446
 6  4.74558862376238  2.47274932993299 -1.51429515601560
 6  4.16135176967697  3.64004816501650 -1.09405897719772
 6  2.85427418341834  3.30096179757976 -0.46135468246825
 6  6.06166417081708  2.10835270667067 -2.08073960276028
 6  4.59615040844084  5.11425294249425 -1.09306197809781
 6  7.05398294969497  3.01376779817982 -2.53907857595760
 1 -4.28071602230223  2.24328937383738  0.07734727672767
 1 -5.14715314441444 -0.44827981908191  0.85185643394339
 1 -4.87465758495850  0.58231246034603  2.34614674917492
 1 -2.77309471987199 -1.57447430493049 -0.12353474477448
 1 -3.41418711201120  0.67148022422242 -1.60173737103710
 1  0.69662624692469  0.03326329982998  3.63802913511351
 1  1.41320976497650 -0.66779666366637  2.37603592399240
 1 -0.76105659815982 -3.00874883818382 -0.08359854145415
 1 -3.48336048804880  1.80502708800880  3.15210137773777
 1 -2.00998585798580  1.47721634913491  4.21780150475048
 1 -1.90433323262326  2.63202183798380  2.92543469746975
 1 -6.74305820092009  2.74516346844684  1.45516363516352
 1 -7.81222393069307  1.10801713011301  1.48778120072007
 1 -8.11464995629563  2.41590376047605  0.35791478867887
 1  1.23688586988699  2.02044465246525  1.41165117271727
 1  0.17948198829883  2.21530961876188  2.99508986348635
 1  1.56597221552155  0.25790218041804 -0.30049227532753
 1  1.85729398799880 -5.07909343254325 -1.68019608180818
 1  0.29970805120512 -4.50406031943194 -0.81120389008901
 1 -7.86045137013701  0.81995462946295 -3.21035194719472
 1  1.35470841094109 -4.70310461476148  1.41757144474447
 1  2.83347439033903 -5.00154663366337  0.55815975437544
 1  4.26453089688969 -4.07434496299630 -2.11329038163816
 1  5.29266138763876 -2.77458633943394 -1.72124704620462
 1  3.87145424172417 -2.60476253185319 -3.02966328862886
 1  4.88016082318232 -0.39075318411841 -1.85703239143914
 1 -9.36048557075708  1.29985088228823 -0.57647833403340
 1 -10.18943710881088  0.98890326872687 -2.17439718141814
 1  3.59537596899690  3.29997256585659  3.60944912711271
 1  6.17287229282928  1.06136034253425 -2.17498500170017
 1  4.72790380058006  5.42120521252125 -2.17228428342834
 1  3.84452245634563  5.78463553345335 -0.57577066026603
 1  5.56493826532653  5.29284573917392 -0.76195794389439
 1  1.48182572107211 -8.14488573107311  1.73465313841384
 1  7.96756803860386  2.68216552285228 -2.86381514371437
 1  7.04208565286529  4.23263083438344 -2.50232312141214

