%nproc=4
%Mem=2GB
# td=(NStates=1) B3LYP/SVP 

TD

0 1
 8 -5.35780114191419  0.20167428242824 -3.24746757955796
 8  3.00833765986599  3.03510923432343  3.01620788518852
 8  3.21173191099110  0.79556456555656  3.30177213841384
 8  1.75322945884588 -7.08929483388339  1.68375878567857
 8  0.76265301470147 -7.19405030903090 -0.29925385658566
 8  1.91830528982898  3.92848581558156  0.05298356275628
 7 -2.37343794649465 -0.85120012661266  0.49977650475047
 7 -4.54228813271327  0.68430267886789 -1.23855578767877
 7  1.82232195929593 -0.64848682968297 -0.49095053315332
 7  2.65370664106411  1.89005745584558 -0.53485096009601
 6 -4.96625887218722  1.27987816721672 -0.02627217071707
 6 -4.52141674707471  0.35653207090709  1.16490855155516
 6 -2.96771022722272  0.09662454485449  1.21951729182918
 6 -1.93495854015402  0.74361650865087  2.00448124632463
 6 -0.75305919341934  0.10407184868487  1.69037779998000
 6 -1.01342571757176 -0.93331844094409  0.73842055035504
 6 -6.47452354975498  1.42059381528153 -0.10294870867087
 6  0.60319380268027  0.30757868096810  2.29868453725373
 6 -6.85521795349535  0.88636094129413 -1.32562342004200
 6 -0.24833057505751 -1.81497679877988  0.00447762346235
 6  1.04488739993999 -1.82176468906891 -0.45363415661566
 6 -5.59666772487249  0.53182287548755 -2.09991943274327
 6  1.87227309720972 -2.96792036803680 -0.90618593519352
 6 -2.16893363456346  1.89567129912991  2.98617725772577
 6 -7.26007800000000  1.86349188518852  0.98065867976798
 6  3.09349487778778 -2.38130015431543 -1.28524968206821
 6  1.01112788538854  1.80396353855386  2.39210442884288
 6  3.04131067206721 -1.01922136153615 -1.06483011401140
 6  1.42809834773477 -4.42375675527553 -0.95624409830983
 6 -8.08865558645865  0.85995055945595 -1.97479220122012
 6  1.73838552865287 -5.04850109250925  0.42385871237124
 6  4.36108382478248 -3.14239550535054 -1.82889488688869
 6  4.00707965016502  0.02047370917092 -1.36707690279028
 6  2.48946156155616  1.78339251355136  3.01215112021202
 6  3.72868739463946  1.37776703300330 -1.11869764046405
 6 -9.30362853585359  0.91920976477648 -1.51749051165116
 6  1.35779308770877 -6.56193492299230  0.50460125282528
 6  4.77430149504950  2.50399245424542 -1.35875960246025
 6  4.10909654415441  3.56144030423042 -0.94658422972297
 6  2.77444620062006  3.25140684208421 -0.46239478647865
 6  6.15048305270527  2.23443531493149 -1.91772330113011
 6  4.60631142454245  5.01320283748375 -1.16228890079008
 6  7.08933648504850  3.10894731613161 -2.21766643474347
 1 -4.64985293599360  2.34893993889389  0.08379792179218
 1 -4.95814424352435 -0.69217420852085  0.96470771907191
 1 -4.66203632283228  0.76060028912891  2.34487662216222
 1 -2.91717912831283 -1.37228408590859 -0.34149654095410
 1 -3.73484917821782  1.07320039623962 -1.98378557585759
 1  0.51898848314831 -0.02149217571757  3.31934726692669
 1  1.47858630263026 -0.37493737773777  2.00799912031203
 1 -0.75325581808181 -2.87984594789479 -0.08765894749475
 1 -3.18498065006501  1.85414199949995  3.18102427002700
 1 -1.56186104550455  1.52401102860286  3.82928265286529
 1 -1.91101390069007  2.90601923772377  2.44449660366037
 1 -6.73362725782578  2.43020197229723  1.58966708550855
 1 -7.66572928122812  0.99917624602460  1.56843926652665
 1 -8.23719221052105  2.29551172127213  0.71613061026103
 1  1.15075725702570  2.22198480648065  1.34386439403940
 1  0.55184922502250  2.60702879067907  2.89153950845085
 1  1.67501311961196  0.22372876307631 -0.45362758885889
 1  1.94227248584859 -5.15288081128113 -1.69427748994899
 1  0.39190727112711 -4.41712162556256 -1.08220098979898
 1 -8.02863818881888  0.75755838983898 -3.20861177317732
 1  1.30697363746375 -4.33376768106811  1.20131981958196
 1  2.76151719461946 -4.89659613861386  0.74477841624162
 1  4.09873431723172 -4.27595512401240 -1.86283533613361
 1  5.24922704420442 -2.85126400720072 -1.13343826532653
 1  4.59011610791079 -2.86574863046305 -2.96067638993899
 1  4.93497630473047 -0.40388449724972 -1.73676036423642
 1 -9.72166168836884  0.92387328452845 -0.41497218341834
 1 -10.12127029212921  0.84945932433243 -2.15995573727373
 1  3.73946037743774  2.96620918951895  3.51567975017502
 1  6.27061206680668  1.05939014551455 -1.89045654885488
 1  4.67832884308431  5.10788388038804 -2.32084913991399
 1  3.68007601170117  5.77962503240324 -0.88220130333033
 1  5.61686345784578  5.22395885048505 -0.47097884598460
 1  1.42825036353635 -8.01557279977998  1.72503217631763
 1  8.03833511531153  2.62513982028203 -2.56007476967697
 1  7.00567201150115  4.30212778407841 -2.29056194529453

