%nproc=4
%Mem=2GB
# td=(NStates=1) B3LYP/SVP 

TD

0 1
 8 -5.27045240704070  0.11166528152815 -3.35104793759376
 8  2.79375620172017  3.26713243664366  3.47594385878588
 8  3.23997473527353  1.08439344844484  3.35916787798780
 8  1.44372850875088 -7.14470037443744  1.52773318311831
 8  0.78590533993399 -7.26466737073707 -0.64213814501450
 8  2.03732719201920  4.01931489848985 -0.06917865346535
 7 -2.40503110581058 -0.77895290189019  0.61108763586359
 7 -4.43890779467947  0.58578282688269 -1.31840377247725
 7  1.86251597869787 -0.69226120712071 -0.33559499759976
 7  2.62449371977198  1.84675312541254 -0.43938141314131
 6 -4.77534978127813  1.27863804320432 -0.00978052155216
 6 -4.46398100350035  0.43448986668667  1.23612567326733
 6 -2.99819327552755  0.13954883728373  1.42967830793079
 6 -2.00387543184318  0.72415456245625  2.20490128832883
 6 -0.72101598909891  0.07713915541554  1.82527128932893
 6 -0.97857223222322 -0.82670777987799  0.85049175747575
 6 -6.25503160056006  1.36547830373037 -0.21070948474847
 6  0.56018950225023  0.33387131023102  2.59230389918992
 6 -6.67991042274227  0.93449575477548 -1.45032589028903
 6 -0.24252999499950 -1.96430173127313  0.16550372607261
 6  0.98522143334333 -1.82873538613861 -0.33755254845485
 6 -5.42234029212921  0.52508220142014 -2.21830127092709
 6  1.76326219611961 -2.80873444944494 -0.86734205080508
 6 -2.19365610681068  1.78180991299130  3.19628826882688
 6 -7.15063705590559  1.93727926392639  0.76445705960596
 6  3.04571009930993 -2.34752677697770 -1.26605776287629
 6  1.10321709430943  1.80147328952895  2.46534175257526
 6  2.99977651865186 -0.95869530893089 -1.06246987798780
 6  1.35265080298030 -4.28767314691469 -0.95127360126013
 6 -8.05974269516952  0.73957852225223 -2.02832755475548
 6  1.61938362846285 -5.14165040744074  0.39702602910291
 6  4.25775349174917 -3.17161842764276 -1.85474747214721
 6  3.99916885908591  0.04598626042604 -1.37405760086009
 6  2.44231684708471  1.97163133743374  3.19418932403240
 6  3.78734326022602  1.35523477977798 -1.10626639733973
 6 -9.20971914491449  0.47801564536454 -1.42829159175918
 6  1.19635694409441 -6.58244697419742  0.26057685038504
 6  4.77225129002900  2.38545060006001 -1.45828955545555
 6  4.18287392189219  3.55089925012501 -1.16728629992999
 6  2.88622737873787  3.27105880728073 -0.44863341034103
 6  6.00728873327333  2.13654552595260 -2.11427295609561
 6  4.69511030443044  4.95157667486749 -1.24326699859986
 6  6.95863341474147  3.11616803820382 -2.64554922302230
 1 -4.08514646534653  2.20497554245425  0.15314485648565
 1 -5.21850027912791 -0.32413740484048  1.25450669896990
 1 -4.78036815601560  1.08618284738474  2.08587072157216
 1 -2.75623303370337 -1.35690254775478 -0.26090848214821
 1 -3.48418411171117  0.73649672587259 -1.46045324262426
 1  0.25538212251225  0.17346732023202  3.62403773597360
 1  1.38841728572857 -0.33978386238624  2.34828314871487
 1 -0.89504999749975 -2.76231419471947 -0.02806298789879
 1 -3.21659381138114  1.87191377667767  3.64089025662566
 1 -1.74065892529253  1.54076270377038  4.21546127072707
 1 -1.80517331663166  2.74590322612261  2.71676383038304
 1 -6.69487338243824  2.73824277637764  1.11389950875088
 1 -7.66759946824682  1.05604193259326  1.51149357195720
 1 -8.02930142144214  2.27897006710671  0.29193819101910
 1  1.26497867916792  2.08695130313031  1.53124313191319
 1  0.26624066416642  2.39847793559356  2.76348670317032
 1  1.94985060336034  0.37320371057106 -0.31026325242524
 1  1.93300155875588 -4.66254177737774 -1.81619968216822
 1  0.36534461486149 -4.30866077947795 -1.41258402810281
 1 -7.83199852485249  1.00345297929793 -3.07210812281228
 1  1.00737367746775 -4.62129643394340  1.37899758735874
 1  2.67875891879188 -5.14717119611961  0.74600853925393
 1  3.97405184898490 -4.12822035053505 -2.08492754535454
 1  5.06319844134413 -3.20807968876888 -1.06632155365537
 1  4.66130322662266 -2.72920497609761 -2.76470679297930
 1  4.92114492159216 -0.35366947574757 -1.90021670987099
 1 -9.63488301050105  0.26908780598060 -0.49278996519652
 1 -9.99312747784779  0.28829320772077 -2.10815055675568
 1  3.73904033543354  3.15032760136014  3.74812299449945
 1  6.39286429202920  1.08152235873587 -2.06846434963496
 1  4.55532654285429  5.40173326532653 -2.27818487348735
 1  3.91213921802180  5.61399846974697 -0.72505558875888
 1  5.71802357385739  5.19642609720972 -1.15613736183618
 1  1.55878341684168 -8.18950019251925  1.31097077017702
 1  7.73703498529853  2.72230953725373 -3.09371813401340
 1  6.80046149044904  4.18808637993799 -2.66044893399340

