%nproc=4
%Mem=2GB
# td=(NStates=1) B3LYP/SVP 

TD

0 1
 8 -5.48611397319732  0.48887300230023 -3.29999283208321
 8  2.77501432753275  3.06548227162716  3.36767303170317
 8  3.10744148194819  0.76052106120612  2.97821978317832
 8  1.66883101900190 -7.06768267266727  1.71640205000500
 8  0.65876262566257 -7.07807871187119 -0.34526845804580
 8  2.02592605190519  3.97646061306131 -0.08831056665667
 7 -2.33771437413741 -0.96271127772777  0.56567309440944
 7 -4.46253015691569  0.63627787638764 -1.28350028212821
 7  1.90063979107911 -0.62391437243724 -0.33733517161716
 7  2.62254352475248  1.82573102320232 -0.67714518951895
 6 -4.86741898819882  1.16408658805881  0.01875233173317
 6 -4.49301390679068  0.22690910861086  1.05385744644464
 6 -3.01796525272527 -0.04139925752575  1.26265160526053
 6 -2.04823986828683  0.64666681368137  2.08399919811981
 6 -0.75043893139314  0.05442688418842  1.73628239043904
 6 -1.02112648764877 -0.95557066616662  0.74239094739474
 6 -6.34045014241424  1.34967672357236 -0.14778319211921
 6  0.43843732703270  0.33668159125913  2.59946461526153
 6 -6.73333576527653  0.92890519571957 -1.37632849054905
 6 -0.10390613261326 -1.86873217431743  0.11177835353535
 6  1.14968787998800 -1.84406691929193 -0.29892868606861
 6 -5.50980903900390  0.62576226942694 -2.12221166196620
 6  1.98894476437644 -2.88814239023902 -0.91207652425243
 6 -2.30128686988699  1.70270200220022  3.09567820782078
 6 -7.20066205840584  1.78683421942194  1.08159877377738
 6  3.22228775707571 -2.40255227952795 -1.17460861796180
 6  0.93888066066607  1.65088823102310  2.62570778917892
 6  3.09697623862386 -0.97682712211221 -0.90765439643964
 6  1.47420295819582 -4.31457583718372 -0.89151762566257
 6 -7.99910663156316  0.96245080948095 -2.09292401440144
 6  1.88935062516252 -5.00433667606761  0.42397872437244
 6  4.47598531493149 -3.14499576537654 -1.71578357575758
 6  4.01881082328233  0.00893255505551 -1.35727592269227
 6  2.36237885328533  1.73564773907391  3.01741164626463
 6  3.75789031493149  1.33278253455346 -1.14272004270427
 6 -9.27111528452845  1.21154899869987 -1.62632139473947
 6  1.30554786318632 -6.42600132963296  0.53445423812381
 6  4.76889095399540  2.43895595059506 -1.48254198069807
 6  4.17478311281128  3.61704586478648 -1.10640021132113
 6  2.81815057105711  3.21238293969397 -0.50303885088509
 6  6.07203520792079  2.18733060446045 -2.15635716451645
 6  4.51689248264826  5.02069358655866 -1.14415708760876
 6  6.83598114951495  3.09401582298230 -2.73953862196220
 1 -4.52187013771377  2.27573261816182  0.06790633263326
 1 -5.08300672977298 -0.67833282438244  0.76867811611161
 1 -4.72228234743474  0.50032426152615  2.04710684518452
 1 -2.85683309370937 -1.41526838433843 -0.27020941224122
 1 -3.60617631093109  0.72091516771677 -1.71991918921892
 1  0.35587217151715 -0.11288131463146  3.51069640184018
 1  1.09445788978898 -0.36063594759476  1.90583890429043
 1 -0.56803729622962 -2.75385334863486 -0.20948112971297
 1 -3.27152930493049  1.42671925722572  3.31065723332333
 1 -1.56795165456546  1.51247987548755  3.82944266886689
 1 -2.08020081938194  2.78342697849785  2.72231438543854
 1 -6.51117501260126  2.35560451255125  1.94134225302530
 1 -7.86597930623062  1.06554288268827  1.56830925352535
 1 -7.70862935423542  2.65703787388739  0.55787478467847
 1  0.84650683198320  2.28502111011101  1.57526753435344
 1  0.43436747684768  2.40175826362636  3.32018237273727
 1  1.80803642194219  0.47763415361536 -0.17410963706371
 1  1.90673893249325 -4.88950447364737 -1.87190525272527
 1  0.31616969736974 -4.34912482588259 -0.85772854255426
 1 -7.92712803780378  0.60343297729773 -3.17455836783678
 1  1.38303124322432 -4.54442874717472  1.26920660826083
 1  3.02636367926793 -5.15216169516952  0.73280721912191
 1  4.05869031283128 -4.10269779827983 -2.39572862546255
 1  5.14404652615262 -3.34206308710871 -0.71198612011201
 1  5.03268036433643 -2.33073512911291 -2.44938526082608
 1  4.94642744984498 -0.35524963376338 -1.74727141534153
 1 -9.30343986618662  1.24624552175218 -0.45230591679168
 1 -10.17774593969397  1.10999537793779 -2.33784352605260
 1  3.60271670307031  3.07128969756976  3.61260944314431
 1  6.49421442704270  1.16275048154816 -2.02126963016302
 1  4.58426943714371  5.40171326332633 -2.11476853185319
 1  3.69166717081708  5.48618568846885 -0.51625470867087
 1  5.46553832533253  5.13621007560756 -0.77567931603160
 1  1.33527106560656 -8.06909815231523  1.76813648674868
 1  7.87293857565757  2.98899620592059 -3.02429119131913
 1  6.45144658895890  4.10870844214421 -2.95232812191219

