%nproc=4
%Mem=2GB
# td=(NStates=1) B3LYP/SVP 

TD

0 1
 8 -5.09895525732573  0.07997211221122 -3.25360819361936
 8  2.62748957505751  3.26493221662166  3.44980124452445
 8  3.17061779957996  1.08550355945595  3.38274023522352
 8  1.27685182108211 -7.16828273267327  1.51257166696670
 8  0.38274502390239 -7.01453235723572 -0.55377930913091
 8  2.16446990629063  4.11355432243224 -0.02001373697370
 7 -2.30789139183918 -0.79124413101310  0.46649317641764
 7 -4.37828173207321  0.62648689728973 -1.16167809990999
 7  1.89137886498650 -0.69632161316132 -0.34091552965297
 7  2.76886815721572  1.85343379347935 -0.53791126612661
 6 -4.86133838013801  1.26345652505250  0.05687614411441
 6 -4.44187879327933  0.41143756145615  1.27655971667167
 6 -3.04463791999200  0.04385926832683  1.34034937503750
 6 -2.08133317761776  0.58641078807881  2.22391318951895
 6 -0.78728261576158  0.07166860836084  1.84867362956296
 6 -0.98159253425343 -0.90068517761776  0.81219792809281
 6 -6.28399449684969  1.30138189408941 -0.20322873667367
 6  0.49325280858086  0.37199512261226  2.57239190799080
 6 -6.68523095479548  0.70020232543254 -1.42002285998600
 6 -0.11067680968097 -1.75369067016702  0.16969414511451
 6  1.12064497569757 -1.71753426602660 -0.22547134033403
 6 -5.32162022012201  0.44376406960696 -2.17165660646065
 6  1.90579644954495 -2.89605318131813 -0.85631094769477
 6 -2.32835957715772  1.56690842284228  3.38339697969797
 6 -7.24073606580658  1.75026056205621  0.93159377327733
 6  3.07554308260826 -2.33519554385439 -1.30712186928693
 6  1.07101387398740  1.86932007420742  2.47151236963696
 6  3.09037557855786 -0.96348578797880 -0.99639327032703
 6  1.46787232513251 -4.30090447004700 -1.01640011391139
 6 -7.92162888378838  0.72264682908291 -2.06032075407541
 6  1.55754744484448 -5.05698194059406  0.34419074557456
 6  4.32832054845484 -3.12771403720372 -1.84805680308031
 6  3.93739268146815  0.00929259105911 -1.41680187528753
 6  2.30623323872387  1.97722189648965  3.16754665976598
 6  3.81273579947995  1.37737699399940 -1.12660843154315
 6 -9.13203137613761  0.71357920172017 -1.57027579017902
 6  1.06014332273227 -6.52736146564657  0.27556834953495
 6  4.79011307620762  2.37094914991499 -1.60986471297130
 6  4.29306494099410  3.57668182838284 -1.06041561286129
 6  2.91598035403540  3.25652735413541 -0.49724827182718
 6  6.12074007840784  2.16522839423942 -2.19690121892189
 6  4.71339213261326  4.95885740294029 -1.30298297019702
 6  6.85478302970297  3.11716813821382 -2.86248091619162
 1 -4.32923087378738  2.25639068396840  0.19993953595360
 1 -5.24757318641864 -0.44938993009301  1.08600984928493
 1 -4.74609472867287  1.05940016911691  2.15053718821882
 1 -2.73291070147015 -1.61564842234223 -0.18231062236224
 1 -3.35381107440744  0.64181725792579 -1.43264046134613
 1  0.35738232253225  0.08713868736874  3.67123245544554
 1  1.26910535453545 -0.30248013201320  2.29067738813881
 1 -0.72111260376038 -2.70584854815482 -0.04051423302330
 1 -3.36479863186319  1.51087767306731  3.70592676027603
 1 -1.72959781918192  1.19316794429443  4.19485921052105
 1 -2.47501030033003  2.75709434523452  2.99584173817382
 1 -6.80205410051005  2.50294924702470  1.69590770957096
 1 -7.33616632493249  0.92027835623562  1.63731615421542
 1 -8.23361185248525  2.11292346244625  0.57016601380138
 1  1.14643682498250  1.98775138313831  1.24582459005901
 1  0.20358439853985  2.61059914771477  2.84577493199320
 1  1.87219283758376  0.45789217941794 -0.13628585468547
 1  2.13800205880588 -4.86247177037704 -1.69427748994899
 1  0.50603868426843 -4.18933884728473 -1.63626639633963
 1 -7.55510083508351  0.48900153415342 -3.21151206320632
 1  0.99602254235424 -4.53989829412941  1.14140382798280
 1  2.62503354625463 -5.24554103310331  0.56720065846585
 1  4.36843128692869 -4.13132066056606 -1.53931298389839
 1  5.24965708720872 -2.80368924972497 -1.32744766626663
 1  4.55067216351635 -2.89340139573957 -2.85143546584658
 1  4.85216802390239 -0.34921903070307 -1.80448713691369
 1 -9.17616713891389  0.51931282848285 -0.50067075327533
 1 -10.03952211731173  0.52518689708971 -2.28615835753575
 1  3.65450188158816  3.52891546014601  3.66948513071307
 1  6.56184118971897  1.14799900640064 -2.02510001320132
 1  4.47926893709371  5.29235232723272 -2.29751680668067
 1  4.11948995309531  5.47966503640364 -0.63228631183118
 1  5.79930170167017  5.16427288188819 -1.23340508860886
 1  0.73509104760476 -8.15325656815681  1.58032770587059
 1  7.84023530533053  2.65064237053705 -3.02952171437144
 1  6.46714815911591  4.11968954025403 -3.24841773087309

