%nproc=4
%Mem=2GB
# td=(NStates=1) B3LYP/SVP 

TD

0 1
 8 -5.29934529632963  0.23808792379238 -3.34324715751575
 8  2.94095092119212  3.06428215161516  3.31176744114411
 8  3.25314605240524  0.89350435953595  3.34287624882488
 8  1.52610674657466 -7.13557946234623  1.48526893669367
 8  0.19652640204020 -6.86833773777378 -0.27165109630963
 8  1.92084554385439  4.01815478247825 -0.27590932653265
 7 -2.36684728742874 -0.88854386098610  0.60375690279028
 7 -4.42994689858986  0.72515676427643 -1.19751168326833
 7  1.99181890899090 -0.70101208220822 -0.34706614471447
 7  2.77526879727973  1.73591204130413 -0.46979445444544
 6 -4.90047229352935  1.22532271167117 -0.00967051055106
 6 -4.57299190459046  0.24709112681268  1.17858991969197
 6 -3.03678713491349  0.05765064746475  1.27679301940194
 6 -2.02892793709371  0.67665981298130  2.15099589778978
 6 -0.74455834333433  0.06068751025103  1.78884764696470
 6 -0.97887226222622 -0.89215432453245  0.75743245154515
 6 -6.39687578497850  1.24501625752575 -0.12292070587059
 6  0.60474395769577  0.38215613871387  2.43541821062106
 6 -6.67371980368037  0.86391869706971 -1.41382223992399
 6 -0.17192293429343 -1.83800910201020  0.08643581928193
 6  1.16200911211121 -1.75772828542854 -0.27297609080908
 6 -5.40097815591559  0.53770346354635 -2.18037747854785
 6  1.90262613251325 -2.94905848184818 -0.91426674327433
 6 -2.28852559375938  1.69282101410141  3.15755439543954
 6 -7.23643563576358  1.82984852085208  1.01560217411741
 6  3.16474200250025 -2.46073809810981 -1.27331848894889
 6  1.10398717131713  1.78669181138114  2.48959417781778
 6  3.07003354435444 -1.06265570497050 -0.92512614361436
 6  1.48312385028503 -4.36706108570857 -0.94633310721072
 6 -8.00151687258726  0.67925248964896 -2.11911663366337
 6  1.69523121322132 -5.04501074347435  0.33853017951795
 6  4.30878859525953 -3.07712897869787 -1.91317331473147
 6  3.99405834803480  0.01520318211821 -1.27905810091009
 6  2.57093970937094  1.85761993629363  3.09459936503650
 6  3.83165769166917  1.31326058235824 -1.03356912761276
 6 -9.18532670567057  0.76644448824882 -1.67280604320432
 6  1.13790109850985 -6.42914164366437  0.47280807350735
 6  4.80301436633663  2.53775583058306 -1.42613634013401
 6  4.10166580108011  3.65297945814581 -1.12729230053005
 6  2.81472022802280  3.20133183458346 -0.57735628262826
 6  6.04662266666667  2.25850772217222 -2.09793132193219
 6  4.51645243864386  5.05346686388639 -1.25460813271327
 6  6.86302385378538  3.15361178257826 -2.51742641074107
 1 -4.55038298899890  2.19917496239624  0.38552809480948
 1 -5.08630705980598 -0.86419141024102  0.93452470077008
 1 -5.04353447264726  0.63581781088109  2.06475861036104
 1 -2.64516192659266 -1.31540839833983 -0.18352074337434
 1 -3.40550624392439  0.73189626582658 -1.46780397769777
 1  0.56691327562756 -0.01162118861886  3.32051738393839
 1  1.25926437043704 -0.19308919291929  1.89667798819882
 1 -0.59157965046505 -2.75626358965897 -0.09134931653165
 1 -3.32902505450545  1.79054563986399  3.61414758235824
 1 -1.49564442384238  1.67189581708171  3.91156088068807
 1 -2.00125292459246  2.77815645144514  2.81746390039004
 1 -6.54518841394139  2.48932788488849  1.72040015881588
 1 -7.78579128742874  1.08468479687969  1.71023344594459
 1 -7.97272576387639  2.42890506060606  0.49838883608361
 1  1.19551173247325  2.34650725872587  1.50922092969297
 1  0.63628766886689  2.55564365216522  3.21131148564857
 1  1.91241685998600  0.45708209840984 -0.09105133123312
 1  2.09707796639664 -4.76216173937394 -1.96180424262426
 1  0.26212429282928 -4.47891780518052 -1.25831860156016
 1 -7.78422374737474  0.89833246724672 -3.11816272827283
 1  1.17623056315632 -4.46823112741274  1.19524921252125
 1  2.74912595549555 -5.06130260926093  0.79263320172017
 1  4.20595503930393 -4.19212674117412 -2.14115316791679
 1  5.09937205870587 -2.71087996879688 -1.20787570907091
 1  4.88309540584058 -2.56450850645064 -2.73587390969097
 1  4.92497530463046 -0.08401251005101 -1.95269195739574
 1 -9.47621714391439  0.39686058325833 -0.56303698989899
 1 -10.12354051915192  0.52599697809781 -2.10698043974397
 1  3.89868630003000  3.11766433503350  3.72665084728473
 1  6.27390239583958  1.16323052955296 -2.11116862006201
 1  4.44818582878288  5.22159525152515 -2.33074012901290
 1  3.95460346444644  5.70461753165317 -0.64676775997600
 1  5.57797956945695  5.19946640124012 -0.70709245734573
 1  1.02878041654165 -8.09265050755075  1.43867354045405
 1  7.82150343214321  3.00181748804880 -2.88201696389639
 1  6.79409085338534  4.36510408170817 -2.30216310541054

