%nproc=4
%Mem=2GB
# td=(NStates=1) B3LYP/SVP 

TD

0 1
 8 -5.52936829862986  0.16301041604160 -3.29799263206321
 8  2.86028285438544  3.18026374977498  3.08920518491849
 8  3.15867660546055  0.89561457055706  3.26474843604360
 8  1.69671380728073 -7.15027093149315  1.42858326812681
 8  0.57620436983698 -6.95936684068407 -0.53184711591159
 8  2.07395085438544  3.94547751475148  0.05593385778578
 7 -2.36243684638464 -0.78024303090309  0.46640316741674
 7 -4.46168007190719  0.82152640124012 -1.37583951605161
 7  1.96031575867587 -0.66148812981298 -0.22301373947395
 7  2.77692896329633  1.75899434953495 -0.40224769976998
 6 -4.84971721802180  1.27136731613161 -0.12412195569557
 6 -4.43386799219922  0.37936435413541  1.07687974867487
 6 -2.99551300750075  0.07352223462346  1.29317465756576
 6 -1.97779282358236  0.69509165616562  2.14893569176918
 6 -0.71033492099210  0.16670811231123  1.72611137333733
 6 -1.04280865586559 -0.87698280738074  0.72910961926193
 6 -6.42134823222322  1.36308806470647 -0.17967638143814
 6  0.47569105240524  0.29129705280528  2.54934960376038
 6 -6.84721715341534  0.89846215141514 -1.40745160286029
 6 -0.20907664966497 -1.87871317241724  0.01976915261526
 6  1.13200611181118 -1.90022253485349 -0.31978077127713
 6 -5.55114317241724  0.49147884108411 -2.11948138893889
 6  1.93994986488649 -2.94733830983098 -0.77002231883188
 6 -2.24697143834383  1.66524825682568  3.19473811381138
 6 -7.18698069026903  1.78266380238024  1.02780339423942
 6  3.08164369266927 -2.39820184448445 -1.20966212331233
 6  1.06019279187919  1.80824396659666  2.57946316471647
 6  3.12763930493049 -0.92593203260326 -0.92590622162216
 6  1.40994653255326 -4.44164854445445 -0.86923539743974
 6 -7.96789351025103  0.79873443784378 -2.02516723872387
 6  1.74434612471247 -5.12420866326633  0.49101542804280
 6  4.18638635503550 -3.09814107990799 -1.78058005540554
 6  4.01445038723872  0.03060472227223 -1.24954514961496
 6  2.41620423582358  1.88384255855586  3.11315122022202
 6  3.83347787368737  1.33938319461946 -1.00999677037704
 6 -9.28244641764176  0.72838068186819 -1.56945570817082
 6  1.20394770317032 -6.43801253075308  0.36817761046105
 6  4.84859892479248  2.48208026302630 -1.47076080258026
 6  4.14737037153715  3.62457661786179 -1.12051162246225
 6  2.89587834383438  3.18595029642964 -0.41784033103310
 6  6.21372937733773  2.29071094249425 -1.88591011981198
 6  4.47132792619262  4.99221073827383 -1.25336800870087
 6  6.86028357975798  3.01376779817982 -2.84344901300130
 1 -4.63351130183018  2.51743678857886  0.06411595359536
 1 -4.98029645874588 -0.47966295739574  1.15054630293029
 1 -4.61347146634663  1.02972720182018  1.92637477197720
 1 -2.77982539293929 -1.41579843734373 -0.15972836413641
 1 -3.52741843514351  0.70163323952395 -1.61520871817182
 1  0.44421100540054 -0.07405743224322  3.47934326652665
 1  1.52888133213321 -0.22599248324833  2.17239555995600
 1 -0.76009650215022 -2.90239820312031 -0.28649883148315
 1 -3.29742189418942  1.92966955225522  3.21415758335834
 1 -1.78029288868887  1.65893452095209  4.08555828042804
 1 -2.08709150845085  2.70721935773577  2.72400455445545
 1 -6.59461335643564  2.34504345644564  1.83031114991499
 1 -7.53616632493249  0.96642297069707  1.50642306490649
 1 -8.00040853215322  2.44615678577858  0.65300429762976
 1  1.18664084538454  2.32887549554956  1.45178518611861
 1  0.40700474057406  2.52453054085409  3.09789014351435
 1  1.67630324862486  0.20365675587559 -0.26234846094609
 1  1.83323158175818 -4.96802232543254 -1.60523858605861
 1  0.36882496289629 -4.61341125452545 -1.13142591229123
 1 -7.95285061006101  0.66706934093409 -3.14217512951295
 1  1.23916685678568 -4.54358866316632  1.32567225482548
 1  2.81831287418742 -4.92203868286829  0.58261219961996
 1  4.23337778157816 -4.13456098459846 -1.83416246884688
 1  5.27703982548255 -2.92467134793479 -1.15913083458346
 1  4.47660475677568 -2.92321437703770 -2.93191351365137
 1  4.89103191029103 -0.23809791859186 -1.90654734293429
 1 -9.55722524472447  0.79442033923392 -0.48290897709771
 1 -10.07096526162616  0.77508188658866 -2.25878562026203
 1  3.87260369176918  3.08571113971397  3.10204838703870
 1  6.72435744134413  1.45010921742174 -1.14992249544954
 1  3.95833684388439  5.31553464546455 -2.30348740374037
 1  3.92417042114211  5.50971804170417 -0.37501058425843
 1  5.73553532503250  5.00722717731773 -1.40356210431043
 1  1.22994053255326 -8.16056729922992  1.55823549664967
 1  7.85535681748175  2.76961426772677 -3.11373013521352
 1  6.43204464876488  3.92636020732073 -3.63224611371137

