%nproc=4
%Mem=2GB
# td=(NStates=1) B3LYP/SVP 

TD

0 1
 8 -5.48355371717172  0.10856497149715 -3.38969180198020
 8  2.88815564166417  3.14164988838884  3.22450871527153
 8  3.19306004380438  0.88962397149715  3.34669663086309
 8  1.64111824772477 -7.32238814321432  1.41670208000800
 8  0.31424817421742 -6.97447835183518 -0.31816574777478
 8  2.03768722802280  4.08587155415542 -0.12485422102210
 7 -2.31943254595460 -0.82944795139514  0.58912543964396
 7 -4.53321722562256  0.56874112271227 -1.43212514461446
 7  1.79816954405441 -0.62740472147215 -0.47272871097110
 7  2.70729199959996  1.86820527062706 -0.58295577057706
 6 -4.77495974227423  1.13961414081408 -0.12163170667067
 6 -4.37430203560356  0.42442886058606  1.17779984068407
 6 -2.90745420162016  0.13686856925693  1.34911025112511
 6 -1.93838888318832  0.72441458845885  2.00065086328633
 6 -0.62966685418542  0.09637107860786  1.71310007220722
 6 -0.94071844684468 -0.86361147024702  0.70278698699870
 6 -6.38027412481248  1.28592034793479 -0.19028744254425
 6  0.68959244254425  0.17274519761976  2.48482315111511
 6 -6.76868930063006  0.90530283548355 -1.48810966866687
 6 -0.18198394039404 -1.78610391149115  0.04133130883088
 6  1.09770268146815 -1.74458697129713 -0.28105689888989
 6 -5.64700275837584  0.47664735793579 -2.24197363816382
 6  1.90251612151215 -2.92828640464046 -0.79054437103710
 6 -2.17650439163916  1.70489222122212  3.11443008300830
 6 -7.14257624982498  1.82315785178518  1.04645525942594
 6  3.12490801910191 -2.45244726902690 -1.12946410351035
 6  1.05483225582558  1.77428057025703  2.60346556495650
 6  3.09463600460046 -0.91312075147515 -1.00761439243924
 6  1.46623216111611 -4.39600397999800 -0.91232970687069
 6 -8.16939366026603  0.67989255365537 -2.06364108610861
 6  1.63220491059106 -5.14368061046105  0.43500982748275
 6  4.29913763016302 -3.12867413321332 -1.77699969736974
 6  3.98228717091709  0.01044270607061 -1.31474166926693
 6  2.50000261566157  1.82417659195920  3.13136304140414
 6  3.80522504840484  1.37310656695670 -1.06332210291029
 6 -9.33580175317532  0.81502934673467 -1.38098686128613
 6  1.11875918431843 -6.58744747424743  0.47810860356036
 6  4.75522958785879  2.47628968396840 -1.48175190169017
 6  4.13248888338834  3.69039319951995 -1.14860443174317
 6  2.75217397339734  3.33598529992999 -0.49737828482848
 6  6.21040904530453  2.35571744314431 -1.84646617541754
 6  4.63290408380838  5.11028254545455 -1.12957562946295
 6  7.02677022842284  3.15912233363336 -2.56900156825683
 1 -4.50713866456646  2.24451949684968 -0.04968542654265
 1 -5.05148357745775 -0.39858484958496  0.89339058735874
 1 -4.56874699389939  1.01574580368037  2.04133626812681
 1 -2.67213462386239 -1.05139199669967 -0.45811820312031
 1 -3.71399709300930  0.53016609280928 -1.91440863816382
 1  0.70052663696370 -0.13442346884689  3.54850018221822
 1  1.27899634363436 -0.33270315431543  1.88822714311431
 1 -0.70649114161416 -2.75835379867987 -0.00119030063006
 1 -3.22588474047405  1.86248283358336  3.41121728932893
 1 -1.49137399679968  1.44024265176518  4.05816554115412
 1 -1.61562436173617  2.68335697149715  2.81897405140514
 1 -6.40890478557856  2.41991094319432  1.60771889068907
 1 -7.60198290659066  0.94912124052405  1.49002142474247
 1 -7.95228371967197  2.45177734783478  0.60458945614561
 1  0.96069825112511  2.12727533553355  1.68751875947595
 1  0.33090713081308  2.32534062186219  3.31435178967897
 1  1.49875549384938  0.32463885408541 -0.19359158525853
 1  1.88765702430243 -4.94354987818782 -1.68043610581058
 1  0.42839091949195 -4.38794870827083 -0.84360713041304
 1 -8.24474979998000  0.84389702370237 -3.12695360736074
 1  1.27370031013101 -4.65359966426643  1.27921760936094
 1  2.82332337523752 -5.00619709870987  0.85860979937994
 1  4.02693713751375 -4.22917044554455 -2.12646169876988
 1  5.17850997249725 -3.11854073487349 -0.98271319281928
 1  4.36006310261026 -2.76806886248625 -2.85456577887789
 1  4.98650145724572 -0.38896300510051 -1.87243393159316
 1 -9.40802032423242  0.73759465666567 -0.12634332053205
 1 -10.43761192629263  1.03480785918592 -1.86902664436444
 1  3.77975440684068  3.16099866846685  3.40567875007501
 1  6.41485649124912  1.26963116961696 -1.62821032423242
 1  4.91231224142414  5.44705779777978 -2.18593564856486
 1  3.75677368146815  5.78221529142914 -0.73343642684268
 1  5.58865063656366  5.33747020162016 -0.39316106420642
 1  1.30792833133313 -8.19992123462346  1.50799047214722
 1  8.04128541034103  2.82306961326133 -2.86851561376138
 1  6.64326577087709  4.13987155845585 -2.95689857895790

