%nproc=4
%Mem=2GB
# td=(NStates=1) B3LYP/SVP 

TD

0 1
 8 -5.35527088888889  0.10957507250725 -3.30379321212121
 8  2.93806063216322  3.24624034743474  3.03167943234323
 8  3.24684542234223  0.99793480258026  3.34127608880888
 8  1.22750688658866 -7.08606451085109  1.46743715351535
 8  0.62495924532453 -6.98560946494649 -0.68047197839784
 8  2.12918637793779  4.05919888688869 -0.06404814041404
 7 -2.36055665836584 -0.88948395499550  0.51557808490849
 7 -4.53330723462346  0.48487273587359 -1.23122505460546
 7  1.87597732483248 -0.65067704870487 -0.43502494059406
 7  2.59327059745975  1.82076052615262 -0.51107858285829
 6 -4.93485573187319  1.14985516491649 -0.08815835933593
 6 -4.45463006840684  0.34787120482048  1.21836389708971
 6 -2.99820327652765  0.01558644104410  1.33969931003100
 6 -1.99991503580358  0.75405755275528  2.06273707190719
 6 -0.77551143864386  0.10654209570957  1.75772453465347
 6 -1.04169854485449 -0.84047915701570  0.83423013131313
 6 -6.38137423482348  1.36669842574257 -0.16530494429443
 6  0.60251373467347  0.36647457055706  2.42990765956596
 6 -6.83122555425543  0.75564786998700 -1.36681753945395
 6 -0.21737747974797 -1.85900120122012  0.02851002670267
 6  1.02390530173017 -1.77303981658166 -0.35305409860986
 6 -5.60051810991099  0.51256094929493 -2.10027946874688
 6  1.89813568346835 -2.85850942694269 -0.88308362496250
 6 -2.05264200540054  1.89437116911691  3.08544718471847
 6 -7.21100309250925  1.94401993799380  0.92222283618362
 6  3.10294582288229 -2.31884390869087 -1.15013617071707
 6  1.17051382398240  1.84128727092709  2.33897911631163
 6  3.09956649764976 -0.94777421682168 -0.91854548554855
 6  1.42527806570657 -4.29005338493849 -0.94694316821682
 6 -8.13939065996600  0.68507307170717 -2.03349807180718
 6  1.73369505960596 -5.08724496689669  0.38284461096110
 6  4.40327804420442 -2.98377964376438 -1.75008700610061
 6  3.93340228242824  0.01885354715472 -1.26843703880388
 6  2.54992760816082  1.90576475077508  2.99894980008001
 6  3.86258078397840  1.36501575787579 -0.96627239793979
 6 -9.24543271627163  0.41348919271927 -1.37491625422542
 6  1.01067837623762 -6.48573730323032  0.36981777447745
 6  4.81479554445445  2.42469452445245 -1.24169789628963
 6  4.24428006250625  3.56308046824682 -1.05173474477448
 6  2.92699145514551  3.25807750915091 -0.44732327932793
 6  6.18100610501050  2.17272914431443 -1.82346387518752
 6  4.69606039943994  4.94750626782678 -1.02151482338234
 6  6.94369192059206  2.93828024942494 -2.60956562466247
 1 -4.57605555625563  2.29106415131513  0.07411695369537
 1 -5.14366279537954 -0.55056004710471  0.87367861616162
 1 -4.69878999819982  0.83828805790579  2.01458359285929
 1 -2.92489990039004 -1.62732959045905 -0.04517690899090
 1 -3.68360405370537  0.60275335153515 -1.65950314761476
 1  0.52885947024702  0.13091306480648  3.60249558175818
 1  1.36507495149515 -0.26446633063306  1.92384070447045
 1 -0.74415490799080 -2.77847581088109 -0.29747992959296
 1 -3.14566671867187  2.21821840714071  3.53661982958296
 1 -1.52542740214021  1.53491211871187  3.90399012361236
 1 -1.77919071837184  2.82216085188519  2.76597875187519
 1 -6.65184908000800  2.73665261736174  1.22993111191119
 1 -7.40788349664966  1.14732106050605  1.59578200080008
 1 -8.33750224152415  2.10941311141114  0.48018701590159
 1  1.19157133843384  2.16778938693869  1.36704671227123
 1  0.36479051915191  2.60475856365637  2.80705105960596
 1  1.65115073337334  0.35586197639764 -0.47609983608361
 1  2.05877413601360 -4.85097062026203 -1.69671773397340
 1  0.41115919631963 -4.34063397679768 -1.30237300700070
 1 -7.96803212821282  0.53379601360136 -3.01695260726073
 1  1.34080702080208 -4.66583088738874  1.35152484008401
 1  2.77651869476948 -5.21372785178518  0.62647658605861
 1  4.17043148694869 -4.14377190569057 -1.70271932453245
 1  5.24949707120712 -2.79046792759276 -1.24862978447845
 1  4.34326142244224 -2.88626068166817 -2.88781910421042
 1  4.88236104320432 -0.54803891269127 -1.68617530573057
 1 -9.16404592679268  0.59831072827283 -0.26019670587059
 1 -10.22565073017302  0.19660403880388 -1.95005474717472
 1  3.95572200360036  3.32580514911491  2.94083226542654
 1  6.62752775837584  1.30284449094909 -1.57648515171517
 1  4.68441945214521  5.43096618861886 -2.02328938393839
 1  4.19902790689069  5.55903297319732 -0.44554763796380
 1  5.79026079757976  5.11708816341634 -0.49992174027403
 1  0.80436797529753 -8.01794303680368  1.63208288138814
 1  7.93436471827183  2.68589589588959 -2.79689845204521
 1  6.46864830913091  4.01789936123612 -3.12495538463846

