%nproc=4
%Mem=2GB
# td=(NStates=1) B3LYP/SVP 

TD

0 1
 8 -5.43801916371637  0.30624473947395 -3.32553538633863
 8  2.79583640974097  3.27812353575358  3.16291255565557
 8  3.13368410621062  1.04658966806681  3.46508847004700
 8  1.41165530143014 -7.17976388078808  1.53415382518252
 8  0.48105485488549 -7.00284118811881 -0.51171510271027
 8  2.05196865616562  3.93280624762476 -0.07904964056406
 7 -2.33720432313231 -0.85181018761876  0.56412293939394
 7 -4.45043894779478  0.73933818241824 -1.19561149324932
 7  2.01046077317732 -0.62885486648665 -0.40666210431043
 7  2.75530680108011  1.74263271337134 -0.60253772877288
 6 -4.96518876517652  1.16120630003000 -0.00437998149815
 6 -4.47205181058106  0.21800821852185  1.24782684338434
 6 -2.99913336953695  0.03850873327333  1.35926126622662
 6 -2.05211025532553  0.62348449544955  2.09271006920692
 6 -0.62937682518252  0.05809725122512  1.79159792199220
 6 -0.87427180218022 -0.76929203830383  0.70485719401940
 6 -6.47183328072807  1.18966072197220 -0.03858227202720
 6  0.50387387068707  0.42159008210821  2.48122279107911
 6 -6.76175860756076  0.86595890109011 -1.39255011271127
 6 -0.08858460046005 -1.80547584868487  0.14137131283128
 6  1.15830874207421 -1.74562707530753 -0.33365215841584
 6 -5.53137119521952  0.52779247244724 -2.11733117391739
 6  1.95271114101410 -2.88487206320632 -0.83386870347035
 6 -2.33330007120712  1.59086081808181  3.17202584258426
 6 -7.39109110131013  1.67836337233723  1.09546015991599
 6  3.17617314561456 -2.51736376067607 -1.24768592569257
 6  1.00979775237524  1.93158630083008  2.48086330473047
 6  3.25635217621762 -1.02804224362436 -1.00366399739974
 6  1.39184472237224 -4.30375475507551 -0.89945841974197
 6 -8.06728344924493  0.91693625802580 -2.11336605860586
 6  1.66781847194719 -5.08699494189419  0.44652097859786
 6  4.35617333373337 -3.13139440524052 -1.77458945634563
 6  4.13745268746875 -0.00954929312931 -1.45203539863986
 6  2.40903351875188  1.98160233453345  3.04777468256826
 6  3.85933045894589  1.30614987128713 -1.09932570327033
 6 -9.29881805480548  0.80416826062606 -1.58510727332733
 6  1.11319862826283 -6.46135486498650  0.31072186488649
 6  4.84664872977298  2.41213326832683 -1.54237796429643
 6  4.17137277177718  3.56211037123712 -1.12441201250125
 6  2.82005076107611  3.17647934933493 -0.57028557555756
 6  6.11501950635064  2.22830470187019 -2.01356288508851
 6  4.64222501590159  4.91669318651865 -1.29656232813281
 6  7.09023657505751  3.14899132053205 -2.40399506760676
 1 -4.51082903360336  2.15538058295830  0.08667820982098
 1 -4.88810723982398 -0.73519851095110  1.03320456875688
 1 -4.90395051425143  0.67065129422942  2.03723585808581
 1 -2.74355176557656 -1.43702055955596 -0.17110950225022
 1 -3.41489718301830  0.49012208840884 -1.44247144444444
 1  0.61792837713771  0.18496847034703  3.53135846804680
 1  1.46614505850585 -0.14436432043204  2.06681500190019
 1 -0.52094258675868 -2.64473243654365  0.05186500490049
 1 -3.53915606760676  1.49504608990899  3.30574674227423
 1 -1.66023088248825  1.58412704020402  4.09478920352035
 1 -2.21535433473347  2.52933156895690  2.71282343634363
 1 -6.88060195529553  2.41383033513351  1.71602972177218
 1 -7.92415512381238  0.74222055045505  1.74647707030703
 1 -8.18527701900190  2.17567973807381  0.56389538673867
 1  0.96885906720672  2.35162777077708  1.61270127772777
 1  0.39530357045705  2.67215530333033  3.10514086858686
 1  1.84032965126513  0.31476786698670 -0.27431965806581
 1  1.96712497109711 -4.90785630883088 -1.69258732093209
 1  0.39579766016602 -4.12819273267327 -1.21018378807881
 1 -7.88267359235924  0.96730936493649 -3.10097100910091
 1  1.22845578567857 -4.54607891219122  1.26256594419442
 1  2.69320036293629 -5.09133561256126  0.63689762816282
 1  4.35784022782278 -4.27856538503850 -2.05957501010101
 1  5.27683980548055 -2.83674255505551 -1.30506542804280
 1  4.43962105840584 -2.60878293389339 -2.84461478377838
 1  5.20234304140414 -0.21434554335434 -2.03098978717872
 1 -9.29558908110811  0.50266116331633 -0.58548923512351
 1 -10.22913107820782  0.69765414381438 -2.37056679837984
 1  3.73669010041004  3.18226079467947  3.73031121332133
 1  6.33283828942894  1.20423462996300 -2.36526402960296
 1  5.24354536473647  5.30192328432843 -2.28982603760376
 1  3.59736774087409  5.54936200610061 -1.28167125032503
 1  5.64688646014601  5.12701915651565 -0.49349109720972
 1  1.06420395889589 -8.07493873637364  1.67237691079108
 1  8.03727500930093  2.84399170547055 -2.82072083428343
 1  6.69841128542854  4.14341191249125 -2.32129501860186

