%nproc=4
%Mem=2GB
# td=(NStates=1) B3LYP/SVP 

TD

0 1
 8 -5.34780014181418  0.05776989198920 -3.36084891769177
 8  2.72768959505951  3.19563528692869  3.18911517591759
 8  3.36547728552855  0.98390339943994  3.12727468866887
 8  1.79740387628763 -7.18965486988699  1.39823023282328
 8  0.42319906930693 -6.90352125612561 -0.40552448364836
 8  2.07570102940294  3.96150911791179  0.16218448284828
 7 -2.38080868356836 -0.90618562516252  0.62232875997600
 7 -4.46387029092909  0.64531878047805 -1.26124805690569
 7  1.82063179027903 -0.59257123812381 -0.39843128122812
 7  2.76711798219822  1.82926137623762 -0.53121059605961
 6 -4.85106735303530  1.18633881328133 -0.05990553405341
 6 -4.48254285968597  0.24397081478148  1.17102916361636
 6 -2.99086254245425  0.05209009140914  1.30164550465047
 6 -2.07621266556656  0.63401554855486  2.11945274347435
 6 -0.77758164566457  0.07839928142814  1.88891765396540
 6 -0.98147252225223 -0.85698080718072  0.84971167946795
 6 -6.40420651805181  1.41389314521452 -0.13988240204020
 6  0.57188067136714  0.29921784488449  2.59665433423342
 6 -6.69049148084808  0.87549985518552 -1.38314917261726
 6 -0.24189993199320 -1.82379768086809  0.12842001770177
 6  0.98694160536054 -1.76620913351335 -0.38972776597660
 6 -5.48412647074707  0.44340403360336 -2.15614505530553
 6  1.84453032293229 -2.86095967196720 -0.95740105670567
 6 -2.29339608080808  1.67372910491049  3.14644328432843
 6 -7.24106609880988  2.01215675167517  0.81280189408941
 6  3.05517104540454 -2.36935896019602 -1.25614677177718
 6  0.95354212681268  1.76754989718972  2.43571879027903
 6  3.06269281028103 -0.96213565296530 -0.97924155515552
 6  1.42240777867787 -4.28488286788679 -0.95224369826983
 6 -7.94676139703970  0.66263082748275 -2.07709243124312
 6  1.75638732883288 -5.00648689108911  0.36601292779278
 6  4.24859257565757 -3.13576484228423 -1.75208720612061
 6  4.09016795899590 -0.01886022422242 -1.29504970007001
 6  2.41362397779778  1.82990716501650  2.95565547064706
 6  3.89587411331133  1.40682993929393 -1.05881165186519
 6 -9.17787596059606  0.86921476527653 -1.45248401100110
 6  1.14553186158616 -6.44725345484548  0.41310210291029
 6  4.84503856875688  2.38550060506051 -1.39222294879488
 6  4.20639627412741  3.59617377757776 -0.93027259855986
 6  2.89744850085009  3.22556425782578 -0.32471101810181
 6  6.17388539293929  2.01931380278028 -1.99769129792979
 6  4.54646543994399  5.12473399059906 -1.22224489638964
 6  6.84367191859186  2.96864328572857 -2.84176884498450
 1 -4.26111406210621  2.11932697759776  0.16208575057506
 1 -4.89538796789679 -0.66959195029503  0.87979922822282
 1 -4.84426454565457  0.80399462856286  2.08350048454846
 1 -2.87836524692469 -1.12845970347035 -0.43452584388439
 1 -3.44578027132713  0.54420749694969 -1.54400159745975
 1  0.48872545684568 -0.05007503400340  3.58105343754375
 1  1.44504294829483 -0.24054393839384  2.05040336073607
 1 -0.68141863436344 -2.80049801310131 -0.01803198479848
 1 -3.32315446744674  1.66688327362736  3.32256842444244
 1 -1.75953081248125  1.60043867136714  4.14638436303630
 1 -2.04216701600160  2.80891952775278  2.88783093709371
 1 -6.76007990309031  2.40833978607861  1.54127224602460
 1 -7.94270697899790  1.17334366276628  1.25657808040804
 1 -7.96070456175617  2.84730690079008  0.44325332253225
 1  1.00476265756576  2.18982159015902  1.31844185178518
 1  0.35769981008101  2.22964105190519  3.14968532303230
 1  1.62355797409741  0.43894028422842 -0.21247347344735
 1  1.79157741634163 -4.93772929612961 -1.74526258845885
 1  0.24531261166117 -4.29819973337334 -1.07205997569757
 1 -7.95581090609061  0.10112274627463 -3.10616152815281
 1  1.27749068916892 -4.35822012631263  1.19090877847785
 1  2.79070011291129 -4.81032751175117  0.71950588898890
 1  4.32046649044904 -4.18255578407841 -1.59909896249625
 1  5.12903502500250 -2.86594547534753 -1.06260118161816
 1  4.48164526082608 -2.56234829042904 -2.79425974827483
 1  4.99525233233323 -0.38160226902690 -1.62673936213621
 1 -9.58696821902190  1.36506740394039 -0.39615030123012
 1 -9.98254641974198  0.81663604200420 -2.29816955865586
 1  3.67751418281828  3.18566113471347  3.53721190339034
 1  6.64676968256826  1.11759596609661 -1.74088159135914
 1  4.28190920112011  5.32216530853085 -2.20712776777678
 1  3.77405540964096  5.79130620052005 -0.59867295049505
 1  5.65530730223022  5.24887134173417 -0.87772952105210
 1  1.19392693119312 -7.92114335683568  1.51678135123512
 1  7.79622090389039  2.56237354365437 -3.06245500770077
 1  6.42579402370237  4.04742231353135 -3.08091098019802

