%nproc=4
%Mem=4GB
# td=(NStates=1) iop(3/107=0140000000,3/108=0140000000) iop(3/107=0140000000,3/108=0140000000) CAM-B3LYP/6-31G(d,p) 

TD

0 1
12 -5.66656816341634  1.22593746804680  0.17258586378638
 6 -4.99414980218022 -2.04781324462446 -0.47795466226623
 6 -3.39191798089809  1.17700798559856  2.76540191349135
 6 -6.16130492619262  4.59782304650465  0.68980918971897
 6 -8.01426719381938  1.20657150785079 -2.37924559805981
 7 -4.39984423772377 -0.28861705350535  1.05701704050405
 6 -4.28317184468447 -1.62135583718372  0.64699704930493
 6 -3.25156828132813 -2.32682598539854  1.56053041674167
 6 -3.02613578457846 -1.37509039993999  2.68279483558356
 6 -3.49098652605261 -0.04247687538754  2.11487607280728
 6 -3.55668870827083 -1.71049449084908  3.98683138253825
 6 -1.98335352855285 -2.59641705100510  0.73729903540354
 6 -1.06201784528453 -3.59310689128913  1.45748933693369
 6  0.17947304780478 -3.93277711841184  0.62994118881888
 8  0.35772583688369 -3.54742205580558 -0.47393362756276
 8  0.97675452115212 -4.77695731303130  1.26940154745475
 7 -4.89750056635664  2.62533191009101  1.47377760946095
 6 -3.98667075687569  2.37767518921892  2.51747235053505
 6 -3.72328183188319  3.60000850305030  3.29545010121012
 6 -4.55819637233723  4.55143667196720  2.66747601890189
 6 -5.24718082228223  3.94406250145015  1.47550364266427
 6 -2.65016037913791  3.65904328012801  4.33861805120512
 6 -4.57380391099110  5.98533595409541  3.05500500530053
 8 -3.92060210821082  6.49489737773777  3.89982388228823
 7 -6.86770056995700  2.60796069186919 -0.71104276057606
 6 -6.87679039383938  3.95653527072707 -0.42130381908191
 6 -7.80141532793279  4.65958268306831 -1.19249335883588
 6 -8.38082753605361  3.69806673657366 -2.10936988138814
 6 -7.81133002350235  2.42281829062906 -1.77013295979598
 6 -8.30711370227023  6.04665457485749 -1.19803931273127
 6 -9.38366272957296  3.92034243244324 -3.22925755855586
 6 -8.71689314301430  4.23305145134513 -4.54303070707071
 7 -6.34476289528953 -0.21009602730273 -1.15123021502150
 6 -7.43047257685769 -0.05410147874787 -2.06909111981198
 6 -7.51100860806081 -1.31900360396040 -2.76545906850685
 6 -6.58994854365437 -2.19086865866587 -2.17810397609761
 6 -5.86404481988199 -1.39338290339034 -1.18255438583858
 6 -8.47736319411941 -1.52855298129813 -3.81952884908491
 6 -6.13931759885989 -3.55916150005001 -2.05049860496050
 8 -6.53168756425643 -4.54554225262526 -2.66046231133113
 6 -5.01254981708171 -3.54277232983298 -0.97378969876988
 6 -5.26733421082108 -4.57101254235424  0.00349402120212
 8 -5.81095686728673 -4.39186819491949  1.09692605600560
 8 -5.02116181438144 -5.80925212161216 -0.39541268586859
 6 -5.34649221342134 -6.81667352065207  0.49804163396340
 6  2.33701467466747 -5.13408452865287  0.70609456385639
 6  3.41953648864886 -4.15172533343334  1.02786068586859
 6  4.05199458965897 -3.24108697879788  0.23725736073607
 6  3.71613595249525 -3.06088102940294 -1.25278478297830
 6  5.20361678747875 -2.42954800240024  0.91508530733073
 6  6.61023589488949 -3.00081300650065  0.24716618401840
 6  7.76083140674067 -2.12614196969697  0.74985067556756
 6  9.13092391369137 -2.18966379998000  0.04056627412741
 6  9.83282966466647 -3.62378301870187  0.32827937023702
 6  9.96295687478748 -0.99041927932793  0.44812732823282
 6  11.26832413481348 -0.86566617351735 -0.33940270647065
 6  12.12559024762476  0.27602222972297  0.26505335293529
 6  13.43381583738374  0.47462233213321 -0.52481724492449
 6  14.50325862486249 -0.63683308590859 -0.36010016091609
 6  14.14798073767377  1.88665483708371 -0.27165642044204
 6  15.35093928432843  2.28116614481448 -1.12215721072107
 6  15.91076366076608  3.56293104590459 -0.71224183738374
 6  17.22877812691269  4.02375021662166 -1.48251218641864
 6  16.96231882158216  4.04130902260226 -3.02596482068207
 6  17.76232563866386  5.40818608390839 -1.01817127602760
 1 -2.64955067786779  1.08479275467547  3.59586005440544
 1 -6.37251523032303  5.67259263966397  0.58037702940294
 1 -8.64063447064706  1.26677698059806 -3.26020149894990
 1 -3.68031909670967 -3.41604692009201  2.04464252505251
 1 -1.96595371927193 -1.18508617021702  2.92487376347635
 1 -3.04922470157016 -2.60854401560156  4.23986753075308
 1 -3.37950874357436 -0.89018892329233  4.54118614841484
 1 -4.54901741344134 -1.97502658355836  3.81126507700770
 1 -2.11943725742574 -3.08319783708371 -0.32676330013001
 1 -1.50578841124112 -1.54976409270927  0.27976609820982
 1 -0.59093452695270 -3.07098839443944  2.32483670237024
 1 -1.55005972757276 -4.40881801300130  1.81454325232523
 1 -1.65118523232323  3.47950747514751  3.65941185088509
 1 -2.62406339643964  4.68429563556356  4.68365462316232
 1 -2.75121811681168  2.88916991449145  5.20175518151815
 1 -5.31961502540254  6.45372956735674  2.38617393879388
 1 -9.96951608510851  3.07126778387839 -3.31508476017602
 1 -10.05196599449945  4.79860370447045 -2.79341963266327
 1 -9.28890869066907  4.40516893089309 -5.13410861316132
 1 -8.13983349274928  5.25317506290629 -4.37296725172517
 1 -7.86029587858786  3.55347470627063 -4.81868179297930
 1 -8.31973956355636 -1.32585312821282 -4.92810380868087
 1 -8.79641062406241 -2.77432083718372 -3.76061869886989
 1 -9.46423650315032 -1.04773159655966 -3.57334424112411
 1 -4.01518887628763 -3.79047387398740 -1.42975626252625
 1  2.47471860486049 -5.92526046904691  1.18282423932393
 1  2.23348409180918 -5.17550452655265 -0.36404985458546
 1  3.63996611891189 -4.19655893769377  2.11700670827083
 1  2.76424141084108 -3.39491511261126 -1.49154169516952
 1  3.89192380568057 -2.03190674997500 -1.41693416391639
 1  4.45791796579658 -3.64607833703370 -1.67525645154515
 1  5.21129117001700 -1.46370279427943  0.48300018351835
 1  5.27162568986899 -2.21726335873587  2.04486936723672
 1  6.76095362206221 -3.91711490359036  0.61608949294929
 1  6.62276243664366 -2.91932954195420 -0.72214280978098
 1  7.63383231453145 -1.00635396049605  0.81534878037804
 1  7.96615871877188 -2.53388997209721  1.80657504280428
 1  8.81905601490149 -1.96836511171117 -1.05779911801180
 1  9.00498501720172 -4.54374314571457  0.26377258485849
 1  10.70873021382138 -3.81282548464847 -0.43669378287829
 1  10.18930799219922 -3.69823091459146  1.32235267796780
 1  9.27328647924793 -0.01662593639364  0.10142550635064
 1  10.14390448794880 -0.85715224912491  1.59607914791479
 1  11.71627676897690 -1.86109614151415 -0.18143251645164
 1  11.15279136583658 -0.68720162506251 -1.44391572517252
 1  11.47863889738974  1.15764019321932  0.21399184398440
 1  12.24772959625962  0.11742293369337  1.32394067426743
 1  13.20285708640864  0.51469590189019 -1.50793303200320
 1  14.46194553285329 -0.68219643234323  0.90184586458646
 1  14.05139071007101 -1.49686870317032 -0.66555287678768
 1  15.51693268166817 -0.27835103330333 -0.73459035153515
 1  13.46751494569457  2.69413403250325 -0.41992378007801
 1  14.53497019731973  2.02551284048405  0.77390460436044
 1  16.14998665446545  1.62818143084308 -1.11878836953695
 1  14.88467405080508  2.35025893869387 -2.05924730443044
 1  15.07707911251125  4.34587996599660 -0.90539253735374
 1  16.11247401750175  3.54377101850185  0.50028992939294
 1  17.81399508090809  3.21164265546555 -1.38323740334033
 1  16.15153587398740  4.92954948384839 -3.18523088288829
 1  18.05098102160216  4.29521903520352 -3.44660926602660
 1  16.66148634883488  3.08139920992099 -3.43709174377438
 1  18.11938798599860  5.37346856435644  0.02625428962896
 1  18.70786830913091  5.73046719891989 -1.34581149554955
 1  16.75338688958896  6.06315581868187 -1.04148821012101
 1 -5.00098539993999 -7.76246567966797  0.01128759105911
 1 -6.43510794109411 -6.74718180478048  0.78585209270927
 1 -4.83677184578458 -6.70293186878688  1.38289274587459
 8 -7.88594618621862  6.85304180498050 -0.47402518651865
 1 -8.97447574467447  6.25496114101410 -2.09688537133713

