%nproc=4
%Mem=4GB
# td=(NStates=1) iop(3/107=0140000000,3/108=0140000000) iop(3/107=0140000000,3/108=0140000000) CAM-B3LYP/6-31G(d,p) 

TD

0 1
12 -5.63836534313431  1.25831070537054  0.17450605580558
 6 -5.10199058625863 -2.14921338463846 -0.34392125892589
 6 -3.44663345244524  1.15159544434443  2.61190656395640
 6 -6.27038583428343  4.56776004020402  0.72375258405841
 6 -8.07831359845985  1.15846669736974 -2.37422509600960
 7 -4.47677193049305 -0.36846503830383  1.08708004680468
 6 -4.22963649114912 -1.61603530513051  0.69536188578858
 6 -3.19134225872587 -2.36577988078808  1.46111047474748
 6 -2.89104227522752 -1.38380127102710  2.63795035113511
 6 -3.65461288868887 -0.06519914761476  2.06427101230123
 6 -3.38582162156216 -1.76443988538854  3.98236093549355
 6 -1.91293648684868 -2.76193360266027  0.59279458495850
 6 -0.86374801830183 -3.55721330193019  1.29771335933593
 6  0.36495159565957 -3.87653149384938  0.52781097579758
 8  0.61678174247425 -3.37460477407741 -0.57257349154915
 8  1.12650949664966 -4.90523014031403  1.06769137643764
 7 -4.93945476177618  2.63471284818482  1.45082531423142
 6 -3.99310139993999  2.38812623432343  2.44053465676568
 6 -3.72510201390139  3.70744924712471  3.23007356355636
 6 -4.56445699839984  4.59562109040904  2.63367263856386
 6 -5.31121722592259  3.98267636283628  1.46831292359236
 6 -2.76912227532753  3.81914929072907  4.25063925332533
 6 -4.69172570317032  6.08803622412241  3.00746025082508
 8 -4.07707775577558  6.54689257725773  3.84734863476348
 7 -6.97723152305231  2.63436333213321 -0.65210686698670
 6 -6.99547226202620  3.94638425562556 -0.40416210491049
 6 -7.94185937233723  4.64127085188519 -1.36128023752375
 6 -8.57537699099910  3.60667759765977 -2.07356630103010
 6 -7.82094098459846  2.43284929372937 -1.69146509300930
 6 -8.30161315221522  6.06019592899290 -1.26694620342034
 6 -9.43695805910591  3.78607900610061 -3.18378301110111
 6 -8.87059851355136  4.04412255845584 -4.54801120512051
 7 -6.59568798779878 -0.17540255795580 -0.89202429442944
 6 -7.51423095269527 -0.03372944154415 -1.89121333203320
 6 -7.60645815301530 -1.25142684628463 -2.64060658325833
 6 -6.80104965376538 -2.23599317111711 -1.94671083678368
 6 -6.13348176357636 -1.47191075617562 -1.00578670907091
 6 -8.52223768156816 -1.57012713871387 -3.83824072027203
 6 -6.33547721482148 -3.59006459035904 -2.02604615971597
 8 -6.62183657915792 -4.56778447684768 -2.59075534063406
 6 -5.14982354445445 -3.62401045364536 -0.82620494029403
 6 -5.34614209160916 -4.67496293739374  0.21516518831883
 8 -5.83793956555655 -4.50460946904690  1.29034539793979
 8 -5.00353005120512 -5.89765096149615 -0.29375251985199
 6 -5.47751531573157 -6.90904275757576  0.66616844664466
 6  2.37555852905291 -5.05772689288929  0.45465942034203
 6  3.36683121812181 -4.07138729962996  0.82878077787779
 6  4.10531992219222 -3.23884675477548  0.02054568956896
 6  3.83439777867787 -3.04163910521052 -1.43879338383838
 6  5.14640106590659 -2.23980902850285  0.58868266706671
 6  6.54982985428543 -2.58499142434243  0.00543201060106
 6  7.62095741934193 -1.78871822732273  0.65921161166117
 6  9.03198401970197 -1.98057289088909  0.00318253575358
 6  9.63431981368137 -3.39871051145114  0.18928547084708
 6  10.00164074317432 -0.76851708910891  0.45059757525753
 6  11.29084638703870 -0.77317692459246 -0.30227899409941
 6  12.23234092269227  0.39977460496050  0.17504435203520
 6  13.58373082888289  0.44826969686969 -0.55288005120512
 6  14.47627592659266 -0.72334173677368 -0.29431358225823
 6  14.18793473307331  1.79406557815782 -0.17171642644264
 6  15.53439763016302  2.11826985518552 -0.86114110911091
 6  16.16935952035204  3.55576032883288 -0.65456606980698
 6  17.61502675177518  3.76989483108311 -1.32785672087209
 6  17.52087467716771  3.91478637033703 -2.78482070627063
 6  18.16237564366437  5.11540680598060 -0.75176463536354
 1 -2.81758748154815  1.17764203960396  3.69384985338534
 1 -6.58994697349735  5.58034341474147  0.79632862456246
 1 -8.71236164336434  1.07399770267027 -3.29949542834283
 1 -3.84251531633163 -3.08085340074007  1.88975703650365
 1 -1.82028915281528 -1.31057871947195  2.65681695779578
 1 -3.17397717681768 -2.88659182038204  4.04716826082608
 1 -2.85965675837584 -1.06404630903090  4.71384341414141
 1 -4.41283379507951 -1.58384746564656  4.04213816431643
 1 -2.31789710341034 -3.34512402970297 -0.27493811761176
 1 -1.47194502690269 -1.90528964526453 -0.01708358675868
 1 -0.36440187368737 -3.00641193679368  2.14676889558956
 1 -1.23173789538954 -4.43797092829283  1.96410820882088
 1 -1.71815192899290  3.74211373577358  4.02023793349335
 1 -2.74889587968797  4.86931413741374  4.73964022172217
 1 -2.97303029802980  3.12163316081608  5.09816482248225
 1 -5.44053711761176  6.67984217861786  2.50251557295730
 1 -10.23681281478148  2.94232488958896 -3.13182643434343
 1 -10.15740653855386  4.64257810191019 -2.86689698039804
 1 -9.60271007080708  4.10225863986399 -5.46880208250825
 1 -8.21797130653065  5.01862160756076 -4.83606356135614
 1 -8.06254610361036  3.24942430123012 -4.64174409920992
 1 -8.03404099369937 -1.27725826872687 -4.79695069336934
 1 -8.37988897189719 -2.63423682878288 -3.94843748074808
 1 -9.78334841434143 -1.60830765416542 -3.53622052875288
 1 -4.31497885528553 -3.70566539313931 -1.51888517541754
 1  2.73636476947695 -6.07382532553255  0.68523448034803
 1  2.10636137953795 -4.86696367246725 -0.70649409900990
 1  3.41798392069207 -4.01973125492549  2.02455746334633
 1  2.87909289598960 -3.38166378747875 -1.70668320932093
 1  4.12220683398340 -2.20452401170117 -1.95603807430743
 1  4.45779795379538 -3.91816554575457 -1.96141506740674
 1  4.86703674457446 -1.21516794079408  0.39691157465747
 1  5.17725625292529 -2.43945557795780  1.60241512181218
 1  6.86732425912591 -3.75661885398540  0.17515539953995
 1  6.41256141654165 -2.56961457045705 -1.06389698519852
 1  7.37675660696070 -0.67262058715872  0.56884412991299
 1  7.77301940484049 -1.81638822192219  1.67434181948195
 1  8.97922203150315 -1.84896317151715 -1.04853819191919
 1  8.78390290899090 -4.13454222562256 -0.10283407580758
 1  10.67395673647365 -3.40420462256226 -0.38160827432743
 1  9.97056611801180 -3.41701279277928  1.32075251795180
 1  9.48847799839984  0.21911763796380  0.41066643044304
 1  10.21495159265926 -0.94743127702770  1.55221476147615
 1  11.75746088738874 -1.70600063196320 -0.18454282748275
 1  11.26704279097910 -0.90433333823382 -1.31605293889389
 1  11.73167420092009  1.44882931213121  0.05205565036504
 1  12.50321514481448  0.42754394579458  1.18785706590659
 1  13.39436623732373  0.62286671897190 -1.57996023472347
 1  14.76255559385939 -0.81587980068007  0.79061474147415
 1  14.12952852385238 -1.59923894019402 -0.46453277477748
 1  15.44608559695970 -0.63324652285229 -0.93645053755376
 1  13.49670786498650  2.56938155725573 -0.25654744244424
 1  14.35560226052605  1.63034332353235  0.91693890779078
 1  16.42590424622462  1.40812942564256 -0.64923141384138
 1  15.56223180658066  1.69695360816082 -1.96742812251225
 1  15.52795420002000  4.57160253825382 -1.03313531163116
 1  16.50495326542654  3.55969261066107  0.54280418081808
 1  18.31369505090509  3.13618510971097 -1.09563864346435
 1  16.82958367876788  4.72540906980698 -3.15372773257326
 1  18.61096702020202  3.83491300460046 -3.30015462056206
 1  16.70946114631463  2.94315538553855 -3.16700473507351
 1  18.28390443764376  4.96435765326533  0.39325098929893
 1  19.19134665696570  5.33518767096710 -1.10306722112211
 1  17.43943549444944  5.93256275937594 -0.84297835913591
 1 -5.11369667106711 -7.81275070817082  0.07444390669067
 1 -6.61719614991499 -6.62524961156116  0.93930743824383
 1 -4.81409957855786 -6.84686626222622  1.69925438203820
 8 -7.81111870347035  6.88030453125313 -0.50733851785179
 1 -8.89954825192519  6.27776342124212 -2.15248093089309

