%nproc=4
%Mem=4GB
# td=(NStates=1) iop(3/107=0140000000,3/108=0140000000) iop(3/107=0140000000,3/108=0140000000) CAM-B3LYP/6-31G(d,p) 

TD

0 1
12 -5.67688919551955  1.27430230453045  0.16724532973297
 6 -5.18133852105210 -2.23792225552555 -0.26273314011401
 6 -3.36747553665367  1.17413769856986  2.68997437073707
 6 -6.22692148784878  4.56961022522252  0.62721293009301
 6 -8.01500726782678  1.20233108380838 -2.23568124162416
 7 -4.40348460176018 -0.32826101790179  1.07557889668967
 6 -4.34252778027803 -1.56131983358336  0.68645099469947
 6 -3.20592371687169 -2.34652795559556  1.54760912461246
 6 -2.90257342834283 -1.26380927182718  2.58421497759776
 6 -3.55790321772177 -0.03165579327933  2.16224080928093
 6 -3.28963200260026 -1.82296573797380  3.98983168256826
 6 -2.04503969716972 -2.76570397969797  0.60422572807281
 6 -0.97383902740274 -3.68882646324632  1.32708629662966
 6  0.28089318981898 -3.90440428112811  0.64999319401940
 8  0.51377144144414 -3.53916122972297 -0.53253948814882
 8  1.10975782148215 -4.75307492479248  1.31213582088209
 7 -4.92444326062606  2.60958033493349  1.52543277497750
 6 -4.04070616041604  2.36637405910591  2.43254385768577
 6 -3.70224972867287  3.58846734893489  3.11428198439844
 6 -4.51805235793579  4.57189871817182  2.52437170847085
 6 -5.32251835603560  3.92015011021102  1.46822291459146
 6 -2.75789115221522  3.75590296609661  4.24936912631263
 6 -4.61759829042904  6.01839926042604  2.90924042884288
 8 -4.05893594159416  6.63888177617762  3.81295519541954
 7 -6.95186898679868  2.68815871167117 -0.80432208850885
 6 -6.94153686848685  3.97298691589159 -0.38816050475048
 6 -7.93303849024903  4.63092981778178 -1.15893000250025
 6 -8.48691814511451  3.69688661856186 -2.00899984438444
 6 -7.82001089158916  2.41823783258326 -1.75213115961596
 6 -8.28382137303730  6.12237214661466 -1.22341184998500
 6 -9.46382074537454  3.88949934813481 -3.11847648044804
 6 -8.78764021772177  4.21948009420942 -4.53940034403440
 7 -6.39609802880288 -0.13488850655065 -1.19243433543354
 6 -7.46107563716372 -0.06629269786979 -2.03241745244524
 6 -7.52374988218822 -1.22895459905991 -2.70396291889189
 6 -6.70568011681168 -2.16880645244524 -2.10273643934393
 6 -6.01416983238324 -1.41751531663166 -1.06538266866687
 6 -8.45437089488949 -1.52509263526353 -3.85642253845385
 6 -6.19868353545355 -3.57119270317032 -2.08021157625763
 8 -6.57345174067407 -4.49980767916792 -2.75917218231823
 6 -5.10407896999700 -3.70844889748975 -0.88132045184518
 6 -5.39694717211721 -4.62154759585959  0.11931560336034
 8 -5.76823259485949 -4.56745575367537  1.27306366976698
 8 -5.11016071427143 -5.89466066246625 -0.30650379497950
 6 -5.45714327852785 -7.12881473477348  0.56963879367937
 6  2.33959493269327 -5.08749987018702  0.57875182958296
 6  3.42925746074607 -4.02617277817782  0.98508640844084
 6  4.05904529472947 -3.24510738083808  0.13184681968197
 6  3.67577191609161 -3.18635357665767 -1.30894039853985
 6  5.09050547634763 -2.30076512411241  0.61480527932793
 6  6.55052992429243 -2.71223414861486  0.13935540294029
 6  7.65718104170417 -1.86350570607061  0.71536722722272
 6  9.01181200250025 -2.06146097969797  0.09249146664666
 6  9.61297767946795 -3.44737537793779  0.26894343664366
 6  10.08717929702970 -0.97342758015802  0.55558807430743
 6  11.43853115551555 -0.93951355825583 -0.20549931613161
 6  12.27011470007001  0.29535416291629  0.14318116571657
 6  13.68663111891189  0.40828569846985 -0.53121788498850
 6  14.49418771777178 -0.76648605120512 -0.16064021492149
 6  14.32838877847785  1.85397156875688 -0.19195845064506
 6  15.39089327972797  2.26084411261126 -1.08954394939494
 6  16.13612619701970  3.56700145294529 -0.72601321452145
 6  17.41101635073507  3.92491033263326 -1.44237817301730
 6  17.19093168286829  4.23660855255526 -2.97006923112311
 6  18.07247665376537  5.18788405370537 -0.82454191309131
 1 -2.79721544434444  1.09148342374237  3.70709117751775
 1 -6.49589756855686  5.64455983638364  0.77531652335234
 1 -8.92067247444744  0.97091739463946 -2.89292477127713
 1 -3.65515658045805 -3.28333364876488  1.90898895969597
 1 -1.81187831173117 -0.95633329492949  2.52312358845885
 1 -2.57218699779978 -2.86170933213321  4.12942648664866
 1 -3.18945973867387 -1.01522142654265  4.63392542234223
 1 -4.28361087278728 -1.89013809470947  3.82279623012301
 1 -2.48384369806981 -3.37150666796680 -0.19479010281028
 1 -1.57015484788479 -1.77671678797880  0.45899402100210
 1 -0.41818725222522 -3.19559085468547  2.32571679037904
 1 -1.27313203480348 -4.57885501670167  1.89520131813181
 1 -1.95523563736374  3.09751927632763  4.02345825552555
 1 -2.60206119621962  4.63492069806981  4.60584684238424
 1 -3.24681767676768  3.18270926842684  4.93941894789479
 1 -5.42093515741574  6.38515270967097  2.43608893029303
 1 -9.97818695219522  3.01378203530353 -3.19794304600460
 1 -10.11401219911991  4.78163200730073 -2.93585387608761
 1 -9.65462526232623  4.34781319531953 -5.18131333363336
 1 -8.29526903630363  5.16992673807381 -4.45755571057106
 1 -8.12316216521652  3.31446080488049 -4.68462838763876
 1 -8.32536012561256 -0.81340188308831 -4.57091809010901
 1 -8.43609459245925 -2.50344374947495 -4.27186982398240
 1 -9.45619569906991 -1.20884770817082 -3.66190309700970
 1 -4.10984834223422 -3.92538736533653 -1.53243653055306
 1  2.43668480148015 -6.22924086708671  0.89079503640364
 1  2.24877562096210 -5.03644062016202 -0.54385783538354
 1  3.41684380668067 -3.82517179897990  1.97092209980998
 1  2.62962794949495 -3.41294691579158 -1.40697323832383
 1  3.89545415871587 -2.13893745304530 -1.69039150965096
 1  4.36779895389539 -3.56238996819682 -2.07154608050805
 1  5.10051009190919 -1.19399582358236  0.25622750625063
 1  5.18955748304831 -2.21155278767877  1.74615949624963
 1  6.81935946264626 -3.78439163126313  0.26449433343334
 1  6.59743990439044 -2.68514612361236 -1.03978457395740
 1  7.46675560686069 -0.80023334843484  0.44531177667767
 1  7.60997310021002 -1.90669725282528  1.94260864616462
 1  8.85244935423542 -1.91417969316932 -0.95671901000100
 1  9.00150466916692 -4.36919569096910 -0.21653544594459
 1  10.67745708650865 -3.42848705080508 -0.20275038853885
 1  9.74087314871487 -3.66291738323832  1.37591803450345
 1  9.56147529812981  0.12041776797680  0.45384074787479
 1  10.16113621112111 -1.00499703360336  1.73275281528153
 1  12.01498663996400 -1.81375140704070 -0.32864723792379
 1  10.85363144984498 -0.68568147304731 -1.18265959955996
 1  11.56532756625663  1.30861529072907 -0.08153770897090
 1  12.62024684798480  0.51075226662666  1.12251053125313
 1  13.42386918761876  0.26256068836884 -1.70430266896690
 1  14.59641898019802 -0.90455866856686  1.03426910691069
 1  14.00683625462546 -1.58265728202820 -0.57048336983698
 1  15.56099708810881 -0.82850604880488 -0.57847473997400
 1  13.45956415061506  2.50819543864386 -0.20428221592159
 1  14.75627232753275  1.74170445964596  0.79108632253225
 1  16.08677033283328  1.33369198189819 -1.24631112181218
 1  15.04082966636664  2.61158507130713 -2.12732411211121
 1  15.51292269686969  4.34720009800980 -0.96839883798380
 1  16.47648041814181  3.62204884628463  0.37729763016302
 1  18.04390807220722  3.12093358455846 -1.16080516011601
 1  16.48675939633963  5.19695622452245 -3.15467782758276
 1  18.09470539403940  4.38850836413641 -3.55762036713671
 1  16.66917711791179  3.38914998499850 -3.57333536813681
 1  18.14081012821282  4.81653287078708  0.39593125732573
 1  19.07329485178518  5.51846599879988 -1.26123303770377
 1  17.40911246214621  6.10610011311131 -0.67179124042404
 1 -5.13217851925193 -7.90324975807581  0.07037349964996
 1 -6.51092552285229 -7.12472955955596  0.71618512601260
 1 -5.05893406200620 -7.03034461006101  1.46881133773377
 8 -7.81556914851485  6.90100660146015 -0.41015879987999
 1 -9.03917221432143  6.33188883378338 -1.76424210701070

