%nproc=4
%Mem=4GB
# td=(NStates=1) iop(3/107=0140000000,3/108=0140000000) iop(3/107=0140000000,3/108=0140000000) CAM-B3LYP/6-31G(d,p) 

TD

0 1
12 -5.56182768936894  1.18207308160816  0.14912351755176
 6 -4.97404779197920 -2.16144460776078 -0.31341820862086
 6 -3.45462425152515  1.27571785658566  2.74616999029903
 6 -6.23200199589959  4.59018228242824  0.70510071887189
 6 -8.02462822992299  1.10601145184518 -2.25365303880388
 7 -4.37161141444144 -0.28710690249025  1.09614095289529
 6 -4.24257778527853 -1.58161186278628  0.64520687028703
 6 -3.14860798529853 -2.26917021982198  1.48842320602060
 6 -2.84647781878188 -1.26619951085108  2.50131668776878
 6 -3.57993542094209 -0.06637926562656  2.13993857905791
 6 -3.18618165756576 -1.59623306470647  3.97504020342034
 6 -2.03993918711871 -2.75769317861786  0.66536184168417
 6 -1.00929257275728 -3.59114669526953  1.41314490249025
 6  0.32045714621462 -3.83035687638764  0.70735893059306
 8  0.54867493179318 -3.38571588518852 -0.42467870207021
 8  1.05245209090909 -4.82518213551355  1.29018362566257
 7 -4.88828964526453  2.67725710261026  1.47970820252025
 6 -4.04386647644764  2.43443086478648  2.46757736103610
 6 -3.71326082978298  3.77670617281728  3.17850840704070
 6 -4.49915046774677  4.62523405170517  2.58444771607161
 6 -5.33652975717572  4.02408050325032  1.54076016831683
 6 -2.82009737283728  3.87119449524952  4.28955314471447
 6 -4.78038456905691  6.01366878737874  2.91027053185319
 8 -4.10377042504250  6.62454034203420  3.77638153805381
 7 -6.97751155105511  2.67593748954895 -0.73979563586359
 6 -6.97953066786679  3.94665428262826 -0.29907159585959
 6 -7.87921310771077  4.67043376817682 -1.28819292879288
 6 -8.41500095339534  3.66985391529153 -2.02840178457846
 6 -7.81388027852785  2.42347835663566 -1.62232817931793
 6 -8.36499949084909  6.00215012441244 -1.00601010981098
 6 -9.45276964026403  3.68965936413641 -3.22566719951995
 6 -8.77836929062906  4.10900904710471 -4.59661606560656
 7 -6.44626304530453 -0.16321133883388 -0.96644173617362
 6 -7.30387991759176 -0.08652472107211 -2.04458866956696
 6 -7.50673818101810 -1.34075577917792 -2.77051957455746
 6 -6.71660120892089 -2.24354392619262 -2.07852401810181
 6 -6.04789320472047 -1.41512507760776 -1.01537766816682
 6 -8.47817327512751 -1.59392951895190 -3.88070496669667
 6 -6.14255792289229 -3.56830241414141 -2.05342889798980
 8 -6.43210760626063 -4.48010570897090 -2.69732599769977
 6 -4.99411797389739 -3.59222727532753 -0.91934425422542
 6 -5.25742321972197 -4.65559100020002  0.06279995179518
 8 -5.77643341494149 -4.40385939403940  1.15008137153715
 8 -4.91090078827883 -5.81733292969297 -0.42411555615562
 6 -5.11464902910291 -6.96486834013401  0.51859368916892
 6  2.38368934213421 -5.06478759895990  0.60463441784178
 6  3.51372590759076 -4.10592075297530  0.93313121292129
 6  3.95511490169017 -3.14003687378738  0.11823545854585
 6  3.63114745364536 -3.03803874517452 -1.34831433593359
 6  5.12237866366637 -2.35088013561356  0.64189798859886
 6  6.56714158545855 -2.88022094729473  0.08887035443544
 6  7.57403272687269 -1.96655601110111  0.56523221372137
 6  8.98596941824182 -2.02907774137414 -0.00520830333033
 6  9.63420980268027 -3.42258289868987  0.12264880718072
 6  9.94917549664967 -1.04422465986599  0.56982949844984
 6  11.38480578297830 -1.03412301920192 -0.20675944214421
 6  12.22521020962096  0.21738636613661  0.19986683428343
 6  13.50658311411141  0.38946381628163 -0.64242900610061
 6  14.43007130613061 -0.82332173477348 -0.40436458735874
 6  14.17136307590759  1.72777894949495 -0.22983223802380
 6  15.35033922432243  2.12729075727573 -0.95722071707171
 6  15.92063464786479  3.52790754355436 -0.65419603280328
 6  17.28368361746175  3.90641848344834 -1.32613654885489
 6  16.98714130383038  4.06389128082808 -2.85003722792279
 6  17.91760116621662  5.19385465076508 -0.77504696359636
 1 -2.74366008880888  1.26304057945795  3.57482795119512
 1 -6.45297327612761  5.69974535493549  0.76258525022502
 1 -8.73925433263326  1.22842314521452 -3.04136961576158
 1 -3.69141020582058 -3.29392470787079  1.95703376417642
 1 -1.75567269116912 -0.99435709730973  2.54986626272627
 1 -2.88971875097510 -2.68987214841484  4.01781532553255
 1 -2.88733952665267 -0.90811071547155  4.88862089188919
 1 -4.21776428812881 -1.62153123402340  4.18548249874988
 1 -2.43496881058106 -3.46258577587759 -0.14918554235424
 1 -1.57291512391239 -1.85432454875488  0.18348647024702
 1 -0.68815424892489 -3.03567486308631  2.36372059075908
 1 -1.44364908650865 -4.52280941214121  1.73009480748075
 1 -1.70286039983998  4.03793331773177  3.82158806850685
 1 -3.16726771687169  4.98716592259226  4.77462372007201
 1 -2.76970996599660  3.00585158265827  5.06158116411641
 1 -5.47592065596560  6.61388558295830  2.25558087948795
 1 -9.91878101160116  2.74670532763276 -3.25343859555956
 1 -10.16577737563756  4.48977282138214 -3.09149944064406
 1 -9.44382418221822  4.35773418741874 -5.47842304460446
 1 -8.11394090349035  4.97069681508151 -4.51945190019002
 1 -8.28566841584158  3.26243560236024 -4.89079900470047
 1 -8.33051064066407 -0.94553509640964 -4.79577057535754
 1 -8.34741572457246 -2.68343174827483 -4.32809544654465
 1 -9.46841692119212 -1.66456327972797 -3.62818972567257
 1 -4.02317967536754 -3.91399622622262 -1.20831411831183
 1  2.54699583258326 -6.19352729572957  0.92233819071907
 1  2.11059180258026 -5.21567854395440 -0.48181163076308
 1  3.78363048534853 -3.97164644644464  1.99447445504550
 1  2.54709969666967 -3.21446706780678 -1.62709525052505
 1  3.72625723902390 -2.08225178447845 -1.60081255175518
 1  4.30278245224522 -3.55576930613061 -2.04857378327833
 1  5.00617065796580 -1.12546897089709  0.44466635013501
 1  5.33008153545355 -2.48943057545755  1.66675155545555
 1  6.57108463516352 -4.01244443654365  0.40969885388539
 1  6.57068722912291 -2.84672228122812 -0.98377897339734
 1  7.34290322162216 -0.97123044814482  0.34260150565056
 1  7.89340144304431 -2.00864744784479  1.53348773407341
 1  8.97131124042404 -1.84805308050805 -1.03004634273427
 1  8.95114963366337 -4.13861263266327 -0.56353014541454
 1  10.64133347414742 -3.42355655775578 -0.07533764726473
 1  9.80855991739174 -3.58991008250825  1.13594403710371
 1  9.67818696929693  0.04419014521452  0.48834419821982
 1  10.25333543104310 -1.20827736163616  1.63384292429243
 1  12.01958710001000 -1.97445747764776  0.06508213501350
 1  10.86967305400540 -1.00265317021702 -1.17204853845385
 1  11.61909294279428  1.12572700190019  0.15046549134914
 1  12.67970279357936  0.00590178157816  1.39793807400740
 1  13.09148594929493  0.55760019231923 -1.76263850255025
 1  14.63987332563256 -0.89255746844684  0.67601328132813
 1  14.01756732773277 -1.85121413771377 -0.83069939143914
 1  15.36104709310931 -0.66395959415942 -0.94744163666367
 1  13.30054824902490  2.52784740384038 -0.25217700540054
 1  14.22208890919092  1.71415170437044  0.85906312021202
 1  16.07899955575558  1.36161477417742 -0.60243673437344
 1  15.32636822022202  2.16461037383738 -2.02796417611761
 1  15.12732413701370  4.32355773377338 -0.73715571367137
 1  16.13375614571457  3.52735937733773  0.35709560996100
 1  18.23621730313031  3.12523401460146 -1.16712579217922
 1  16.18279900030003  4.91552808170817 -2.99361172097210
 1  17.86186210971097  4.35741525482548 -3.37632223732373
 1  16.38164836503650  3.04467553755376 -3.16259429402940
 1  18.23878992619262  5.36436765426543  0.21292295649565
 1  18.82813033533353  5.45510966316632 -1.30822773717372
 1  17.21065261616161  5.89448895199520 -1.00883494479448
 1 -4.36922222362236 -7.76628606170617  0.03815027732773
 1 -6.28608303860386 -7.22113920052005  0.58388189568957
 1 -4.70835900450045 -6.69082065766577  1.54303876047605
 8 -7.85743333493349  6.90312681348135 -0.39113689768977
 1 -9.53875217231723  6.23785943084308 -1.46799248204820

