%nproc=4
%Mem=2GB
# td=(NStates=1) iop(3/107=0140000000,3/108=0140000000) iop(3/107=0140000000,3/108=0140000000) CAM-B3LYP/6-31G(d,p) 

TD

0 1
12 -6.73551612371237  0.59422856695670  0.01721934143414
 6 -4.50252735923592 -2.08730715251525  0.39307958495850
 6 -4.13332514791479  2.69878151125112  0.89996287788779
 6 -8.82079478417842  3.29204322842284 -0.28336783848385
 6 -9.52762085968597 -1.67143017261726 -0.41655171387139
 7 -4.56086115801580  0.34957435513551  0.44237326942694
 6 -3.86832409800980 -0.89494920172017  0.51067162256226
 6 -2.43838725732573 -0.55231699089909  0.90400246254625
 6 -2.42020198599860  0.88657880668067  1.18641080358036
 6 -3.75688195109511  1.32677276247625  0.83192796749675
 6 -1.93375966166617  1.20974277017702  2.73778834163416
 6 -1.45612436083608 -1.05995855925593 -0.15460413411341
 6 -0.12910102840284 -1.27819952655265  0.30745981948195
 6  0.75352643184318 -1.45822305920592 -0.76880505430543
 8  0.74954502260226 -1.19823243574357 -1.94959594979498
 8  1.77446773337334 -2.35763606220622 -0.48158308080808
 7 -6.44099584178418  2.51531190119012  0.29491323922392
 6 -5.35776633753375  3.26002464566457  0.58360465666567
 6 -5.69766398159816  4.75707539233923  0.77989285788579
 6 -7.04253496689669  4.95208129862986  0.29790637393739
 6 -7.58183988788879  3.56496530493049  0.07112194359436
 6 -4.85277019731973  5.88491592209221  1.19434710271027
 6 -7.70822238353835  6.13090001010101  0.08362788648865
 8 -7.36949086528653  7.20940255685569  0.34941279807981
 7 -8.68027158065807  0.79251011021102 -0.54632728182818
 6 -9.29624329672967  2.00282501780178 -0.52321337363736
 6 -10.79681631193119  1.68812868396840 -0.81002678387839
 6 -10.98070242774277  0.32801370577058 -0.86320717621762
 6 -9.69830149344934 -0.29965812901290 -0.60993307000700
 6 -11.60872764806481  2.86585277837784 -1.17384203500350
 6 -12.17740086058606 -0.25651921422142 -1.30411854555456
 6 -11.97446430853085 -0.75439760496050 -2.68431122582258
 7 -7.00125660856086 -1.37422998429843 -0.11233387788779
 6 -8.17946060766076 -2.30069006570657 -0.37938113611361
 6 -7.82368995409541 -3.59300662306231 -0.32236324642464
 6 -6.40682630383038 -3.72999216011601  0.08828056745675
 6 -6.02043833253325 -2.18313712821282  0.18432461676168
 6 -8.83234175767577 -4.81287866566657 -0.45838865476548
 6 -5.29391559605961 -4.60500629872987  0.26209423512351
 8 -5.12228397709771 -5.72273281158116  0.09346985358536
 6 -4.06515024042404 -3.43001356055606  0.47914256145615
 6 -3.61186469736974 -3.81756793229323  1.89018873187319
 8 -4.20121536163616 -4.09101583638364  2.89552822262226
 8 -2.02698437333733 -3.62966927222722  1.87277721692169
 6 -1.40115863796380 -3.85031012111211  3.16884130933093
 6  2.75065695849585 -2.56638181508151 -1.41386263036304
 6  3.99595336273627 -1.73764076517652 -0.95685121742174
 6  5.01927268266827 -1.27137400880088 -1.64983118471847
 6  5.11328531233123 -1.71285442014201 -3.04293127532753
 6  6.12678650325033 -0.27924557745775 -1.25644220272027
 6  7.27021571557156 -0.99554533663366 -0.77141387868787
 6  8.37754031433143  0.24037967256726 -0.37047552805281
 6  9.81664475387539 -0.46111303160316 -0.15179348504851
 6  9.71223874017402 -1.15023383808381  1.28204257305731
 6  10.87576990699070  0.53533838803880 -0.18759392099210
 6  12.33105837633763 -0.09555824862486  0.04268257945795
 6  13.42034357695769  1.09047632233223  0.19598249664967
 6  14.81109744494450  0.35306858495850  0.26722138423842
 6  15.05372036013601 -0.63741602210221  1.49434935893589
 6  15.86667629602960  1.46700160216022  0.22382558785879
 6  17.26633611171117  0.86455167956796 -0.02967984188419
 6  18.26183573097310  2.15099229042904  0.06484633783378
 6  19.70468266936694  1.71401989678968 -0.16768685238524
 6  20.07067686898690  1.08012344264426 -1.86849264046405
 6  20.70222739163917  2.86870828882888  0.15715061916192
 1 -3.22456309460946  3.37270852185218  1.30340974267427
 1 -9.34283826632663  3.96128521362136 -0.38380201410141
 1 -10.53675616721672 -2.15360575987599 -0.30207303320332
 1 -2.33288580538054 -1.04796241404140  1.76782683098310
 1 -1.65135447404741  1.08127860406041  0.35245169856986
 1 -0.91248263196320  0.88620693509351  2.58557926902690
 1 -1.87836601050105  2.35078365476548  2.61023714151415
 1 -2.79581191369137  0.84456234153415  3.30970683978398
 1 -1.93631265156516 -2.01337261026103 -0.61942972977298
 1 -1.52116728572857 -0.17488896179618 -0.86452624342434
 1  0.09746774507451 -0.34877631093109  1.05526139133913
 1 -0.64044776457646 -2.03878021182118  1.21865209730973
 1 -3.84340887128713  5.29522735063506  0.63789874757476
 1 -4.99101938253825  6.90312298819882  0.79588649474948
 1 -4.72087311551155  6.06282524352435  2.60316808910891
 1 -9.03648666276628  5.88314342354235 -0.35562193799380
 1 -12.45737529112911 -0.90223109060906 -0.72866729392939
 1 -13.14011022602260  0.47271367116712 -1.08367600400040
 1 -12.73934175727573 -1.42085420082008 -2.72613973107311
 1 -12.16109307310731  0.13729115061506 -3.60250241974197
 1 -10.72932975737574 -1.17950126712671 -2.62923953135313
 1 -10.30695987928793 -4.27429398499850 -0.86971919991999
 1 -8.02194740934094 -5.65350536313631 -1.67949760166017
 1 -8.90757803780378 -5.42785474667467  0.85496010551055
 1 -3.36467604900490 -3.71706543144314 -0.33977228402840
 1  3.01746336173617 -3.56864413821382 -1.75685140224022
 1  2.26076036483648 -1.95295121012101 -2.29577981328133
 1  3.98962629032903 -1.36220896929693  0.25324892649265
 1  4.65535859285929 -1.01604507700770 -3.79132924792479
 1  6.15684926332633 -1.45449412481248 -3.01652287618762
 1  4.95168899629963 -2.72659527382738 -2.97161134493449
 1  6.47995841774177  0.52201753915392 -2.37156977417742
 1  5.55748085748575  0.51569711751175 -0.66836109950995
 1  7.18925010391039 -1.63097129422942 -0.25079335773577
 1  7.84575997439744 -1.23286207650765 -1.49198867476748
 1  8.37885001640164  0.93390398519852 -0.85619840514051
 1  8.28043654175418  0.73986917511751  0.35865157355736
 1  10.03190563766377 -1.51444888858886 -0.98037519511951
 1  9.07583982828283 -1.87731654735474  1.26845520632063
 1  10.69572564196420 -1.75060894209421  1.65311720312031
 1  9.28032124372437 -0.54347556995700  2.09142044714471
 1  10.84185782358236  1.22531529142914 -1.16567373897390
 1  10.68670841744174  1.47296617221722  0.78693257355736
 1  12.61490903310331 -1.19425186468647  0.59368305160516
 1  12.85380753475348 -0.40162838343834 -1.11757475497550
 1  13.34603947394740  1.71835138013801 -0.69385829042904
 1  12.93292533733373  1.66445069636964  1.26452224162416
 1  15.31405283108311 -0.32722023802380 -0.81831002220222
 1  14.28380828072807 -0.07526713121312  2.47221999499950
 1  14.87945521902190 -1.72521019291929  1.46822432053205
 1  16.28880591369137 -0.65134871797180  1.31160763846385
 1  15.79958109300930  2.20780077347735 -0.58440841554155
 1  15.80821485408541  1.98840837633763  1.21890021322132
 1  17.49813112821282  0.05797896849685  0.79181936863686
 1  17.40759828402840  0.23550171937194 -1.19720109750975
 1  17.93725873297330  2.87438398619862 -0.61252424072407
 1  18.20547054315432  2.72692659955996  1.06604327482748
 1  20.31531409260926  0.55746859305931  0.87632098289829
 1  19.75221353935394  1.82357740734073 -2.70093221842184
 1  21.23099738973897  0.99955815401540 -2.06446057945795
 1  19.70826355335534  0.15202748434844 -2.27653572827283
 1  20.48057483608361  3.44346392549255  1.34558531213121
 1  21.70572831313131  2.24367094979498  0.47980526552655
 1  20.68198485138514  3.69979746694670 -0.69907470377038
 1 -0.27248287338734 -3.76721947134713  2.55718406640664
 1 -1.49808948994899 -4.84434170787079  3.80786142274227
 1 -1.36623063636364 -2.88096657375738  3.83737789098910
 8 -11.48862723702370  3.87664246344634 -0.93987580128013
 1 -12.38717922942294  2.42585382548255 -1.73112371737174

