%nproc=4
%Mem=2GB
# td=(NStates=1) iop(3/107=0140000000,3/108=0140000000) iop(3/107=0140000000,3/108=0140000000) CAM-B3LYP/6-31G(d,p) 

TD

0 1
12 -6.71605417751775  0.73132227632763  0.03668128762876
 6 -4.74689179567957 -2.23403182498250  0.56767704470447
 6 -4.22855467086709  2.57626926002600  1.13525640724072
 6 -8.75709841454145  3.24250827492749 -0.46182568426843
 6 -9.25624372197220 -1.69099212881288 -0.70858091679168
 7 -4.80505557745775  0.28603800150015  0.71574060616062
 6 -4.06061332693269 -0.90062976977698  0.74358491389139
 6 -2.70015343394339 -0.81780353955395  1.15005706800680
 6 -2.59170913671367  0.79863001180118  1.50972313481348
 6 -3.91404766766677  1.27980806600660  1.09369414411441
 6 -2.38739502520252  1.04934673057306  3.18155271807181
 6 -1.65351409980998 -1.10733329672967  0.02689401570157
 6 -0.20606872517252 -1.14964667126713  0.49545861936194
 6  0.88613969316932 -1.16159339623962 -0.57135530933093
 8  0.69101917001700 -0.92205481798180 -1.85073606380638
 8  1.77675796239624 -1.97762806140614 -0.16457137963796
 7 -6.66596833903390  2.54828519851985  0.41575532343234
 6 -5.54779534043404  3.23470211341134  0.78161445764576
 6 -5.68798301350135  4.72303198799880  0.52635750435044
 6 -7.10664137753775  4.93277936843684  0.41981856515652
 6 -7.64511621552155  3.49643845224522  0.00910574197420
 6 -4.88386330663066  5.68451588208821  1.00152782078208
 6 -7.85809737103710  6.19057597769777  0.42786230993099
 8 -7.26561047724773  7.22914453105311  0.76497435423542
 7 -8.62569612311231  0.69746060526053 -0.46007865696570
 6 -9.26759043144314  1.98493322862286 -0.62053310561056
 6 -10.64495112541254  1.66603647474747 -1.05765154635464
 6 -10.72583694119412  0.25011591599160 -1.15511636713671
 6 -9.52657432073207 -0.30859902310231 -0.87534961166117
 6 -11.67126390169017  2.65333152625263 -1.47388203900390
 6 -11.97369048954895 -0.43982754505451 -1.58861699539954
 6 -11.66949381148115 -0.94906707190719 -3.06118891359136
 7 -6.88132461536154 -1.43310587188719 -0.11325396989699
 6 -8.05565822742274 -2.22140213691369 -0.44957815581558
 6 -7.64122170727073 -3.66281360376038 -0.48933994409441
 6 -6.39559518071807 -3.73358251915192 -0.16186444704470
 6 -6.11121741044104 -2.33000181468147  0.06077226152615
 6 -8.60800932443244 -4.78450582838284 -0.68141095699570
 6 -5.17873407790779 -4.46480227832783  0.12190021572157
 8 -5.12098384708471 -5.58278881718172  0.07631813841384
 6 -4.05400912631263 -3.51033159235924  0.64493914111411
 6 -3.49250276117612 -3.78046422192219  2.03041275427543
 8 -4.09748498859886 -4.13778051285129  3.03507217701770
 8 -2.22564423932393 -3.55473177847785  2.04622456165617
 6 -1.35906442854285 -3.91217630773077  3.19347377257726
 6  2.92929482228223 -2.19656483338334 -1.00259150325032
 6  4.09037280468047 -1.25508250935094 -0.68886441874187
 6  4.84703545894589 -0.82656952835284 -1.60015621722172
 6  4.93580756455646 -1.47519065376538 -3.01032801500150
 6  6.09923374797480  0.07766011311131 -1.34479103760376
 6  7.39987868186819 -0.73316909900990 -0.96160289758976
 6  8.47121968226823  0.22917855245525 -0.58311679217922
 6  9.69364245364537 -0.54391131143114 -0.33377168286829
 6  9.71117863416342 -1.31509032373237  1.23113748254826
 6  10.90711304130413  0.64788964316432 -0.06639180078008
 6  12.36026129662966 -0.17989668246825  0.09371768296830
 6  13.29517105970597  1.06846412111211  0.06361926032603
 6  14.71494782998300  0.41092437053705  0.26076073817382
 6  14.83189817791779 -0.39986226672667  1.69571949594959
 6  15.95004463286329  1.43796869886989 -0.04767156185619
 6  17.41899137723772  0.75170039443944 -0.14354122802280
 6  18.48482803020302  1.86570376157616 -0.27345749254925
 6  19.95161736283628  1.49626812161216 -0.50805088878888
 6  20.22298209950995  0.73727915821582 -1.92688848004801
 6  20.97086425532553  2.50290170817082 -0.24515961186119
 1 -3.37815845414542  3.33492474347435  1.75523492519252
 1 -9.31376535903590  4.05582466756676 -0.57704133803380
 1 -10.29885237683768 -2.13552395169517 -1.06848967486749
 1 -2.56380889768977 -1.21685930373037  1.89134918321832
 1 -1.65670500910091  1.42306278247825  1.07087354075408
 1 -1.30844222792279  1.13459177357736  3.43868457955796
 1 -2.45497367126713  1.84559313571357  3.60706682448245
 1 -3.30194252675268  0.39430731603160  4.13494936403640
 1 -1.71263028332833 -2.06160743374337 -0.37532531933193
 1 -1.67394256325633 -0.26910838373837 -0.74618440924092
 1  0.35686368466847 -0.25921735503550  1.12683854905491
 1 -0.28505222502250 -1.92713904770477  1.12218245034503
 1 -4.13403793419342  5.36066389428943  0.57217217491749
 1 -5.08303858445845  6.74264694059406  0.54727163326333
 1 -4.73936496469647  5.64615357635764  1.81651942424242
 1 -8.89734274837484  6.33770888008801  0.18161178537854
 1 -12.29681923552355 -1.15005587308731 -1.14874930213021
 1 -13.06015223022302  0.43932033183318 -1.48076571297130
 1 -12.74654247734773 -1.68474058945895 -3.21984910201020
 1 -11.72086905070507 -0.20331290979098 -3.88450061956196
 1 -10.72793961836184 -1.49562287928793 -2.81411801920192
 1 -8.51333051635164 -4.97039359495950 -1.73954618261826
 1 -8.28788400300030 -5.87690770337034 -0.42300195209521
 1 -9.60108738873887 -4.47225918711871 -0.40886627712771
 1 -3.43865344674467 -3.83292701760176 -0.12975128192819
 1  3.20221183658366 -3.05165243904391 -0.66114183128313
 1  2.84565885468547 -2.34897081208121 -2.06212644794479
 1  4.19288661636164 -0.75980872927293  0.31969557115712
 1  3.94186724372437 -1.12478595109511 -3.63345346034604
 1  5.87238081648165 -1.29734841024102 -3.47378860276028
 1  4.97800162756276 -2.44696731103110 -2.69896408020802
 1  6.28106852875287  0.77338267566757 -2.55287790499050
 1  5.70330543994399  0.86972252005200 -0.55370963436344
 1  7.05272645154515 -1.59260745784578 -0.09680795919592
 1  8.18150354875488 -1.69356814711471 -1.78035751165116
 1  8.85893802520252  1.06023661846185 -1.39682246754675
 1  8.15074357245725  0.71761694989499  0.38873458185819
 1  10.37343979107911 -1.18970641434143 -1.24424158175818
 1  8.92183442774278 -2.03035185088509  1.23529188998900
 1  10.65408147754776 -2.01452533373337  1.38778066946695
 1  9.64355756735674 -0.52913413581358  2.04202550765077
 1  11.10619425722572  1.49246200610061 -1.02516968856886
 1  10.71735148174817  1.31502037763776  0.69243312361236
 1  12.12614015621562 -0.77448988848885  1.29320300360036
 1  12.53181533553355 -1.13844206480648 -0.87777077457746
 1  13.01732660266027  1.55743528852885 -0.93405230983098
 1  12.92171421622162  2.01472572387239  0.76791258065807
 1  14.77314874067407 -0.43091060706071 -0.68200639183918
 1  14.34914481438144  0.28466886238624  2.27235000800080
 1  13.95425269876988 -1.05148282018202  1.74591208930893
 1  16.01540857395739 -0.83482706580658  2.48976545424543
 1  15.69835096999700  2.37261725512551 -1.06235621032103
 1  16.12667670027003  2.02298183368337  1.22439076227623
 1  17.59627094219422  0.01658482908291  0.41665185188519
 1  17.31894941914191  0.31013918311831 -1.21226260366037
 1  18.22530753785379  2.81912846064606 -1.16929991829183
 1  18.21093108920892  2.43274718161816  0.84333100360036
 1  19.76895945714572  0.48311115731573  0.29299265006501
 1  19.87123544154415  1.29830488008801 -2.82196432163216
 1  21.06876116611661  0.56206440464046 -2.11691582498250
 1  19.77543027002701 -0.16900461886189 -2.31808988368837
 1  20.96167294589459  2.96033561266127  0.97483823742374
 1  22.04689242954295  2.17670425312531 -0.10392310731073
 1  20.82248890179018  3.08291577877788 -1.07149194549455
 1 -0.53116874197420 -4.49137188658866  2.80879922792279
 1 -1.96281596259626 -4.78383565726573  4.02898353495350
 1 -0.85452946624663 -3.26028450555055  3.82457661086109
 8 -11.54697307160716  3.78530332953295 -1.26241805550555
 1 -12.38593910541054  2.31426266636664 -2.10108071307131

