%nproc=4
%Mem=2GB
# td=(NStates=1) iop(3/107=0140000000,3/108=0140000000) iop(3/107=0140000000,3/108=0140000000) CAM-B3LYP/6-31G(d,p) 

TD

0 1
12 -6.84518709080908  0.51550069416942 -0.03379576007601
 6 -4.49750685718572 -2.04119254105411  0.49037931493149
 6 -4.12256407180718  2.68135976907691  1.02634551615162
 6 -8.75996870157016  3.07195121922192 -0.33435293699370
 6 -9.36070416801680 -1.61333436303630 -0.80571062976298
 7 -4.64804987688769  0.28352775047505  0.64318335043504
 6 -3.96259352495250 -0.93084279107911  0.78820937633763
 6 -2.46222964156416 -0.65792755195520  1.10675273757376
 6 -2.42493245904590  0.92585273407341  1.30938310081008
 6 -3.97768403130313  1.35691577677768  0.93330810551055
 6 -2.15294157985799  1.19379117501750  2.84553911671167
 6 -1.61415016341634 -1.20432299569957  0.08774010031003
 6 -0.15847396569657 -1.24448615521552  0.48739781328133
 6  0.86592767196720 -1.35709294619462 -0.51491966576658
 8  0.84324439253925 -0.82727534003400 -1.63796478667867
 8  1.86817710431043 -2.05429572817282 -0.08851377387739
 7 -6.62024376657666  2.53233360336034  0.44555830373037
 6 -5.47703826472647  3.20435907910791  0.79441573777378
 6 -5.73976819201920  4.76097578237824  0.75726059465947
 6 -7.06384709810981  4.91310740124012  0.28220480378038
 6 -7.70466217011701  3.52234104250425  0.09919475087509
 6 -4.82067698799880  5.86363379387939  0.99237690569057
 6 -7.73601516281628  6.15942286238624  0.05041456515652
 8 -7.41213512971297  7.19913152975298  0.29412726952695
 7 -8.67884143764376  0.72890374957496 -0.56415906500650
 6 -9.34761843424342  1.89357409270927 -0.59684073637364
 6 -10.71607823812381  1.67482735383538 -1.05774155535554
 6 -10.94012837033703  0.33607451185119 -1.22733358885889
 6 -9.57580924422442 -0.24432259545955 -0.92445452215222
 6 -11.95745252055205  2.60836702980298 -1.04455910671067
 6 -12.26709983048305 -0.52086564886489 -1.56360449414941
 6 -12.30920778287829 -0.75735790099010 -3.06842963766377
 7 -7.05431191409141 -1.29666222752275 -0.15278792329233
 6 -8.22130479207921 -2.10803079977998 -0.48505170317032
 6 -7.76278386348635 -3.58124544694469 -0.50195120522052
 6 -6.41480710191019 -3.62011117201720 -0.10393865446545
 6 -5.94924121282128 -2.16932574707471  0.14100028432843
 6 -8.49506803030303 -4.72245962376238 -0.94607742364236
 6 -5.27802400690069 -4.48965476357636  0.07474550025002
 8 -5.03662541124112 -5.67133767206721 -0.19149864326433
 6 -4.06070979637964 -3.38284884408441  0.56882152935294
 6 -3.58323183408341 -3.85469164466447  1.91259097209721
 8 -4.09876511661166 -4.13812054685469  2.94865353515352
 8 -2.17754942984298 -3.66025233053305  1.98409834903490
 6 -1.48662718481848 -4.06482157225723  3.14174860006001
 6  2.94229612241224 -2.27788296519652 -0.92447369146915
 6  4.23532730013001 -1.43780078117812 -0.62981851415142
 6  5.15152590799080 -0.99398627002700 -1.48296449804980
 6  5.22334631843184 -1.42876601130113 -2.90254723692369
 6  6.19595341994199 -0.11052870577058 -1.00398695719572
 6  7.54082277627763 -0.76564234633463 -0.50062679998000
 6  8.58758131843184  0.27635326992699  0.02934445394539
 6  9.98991208060806 -0.36165308560856  0.20008170247025
 6  9.71384890119012 -1.25050386508651  1.48255262406241
 6  11.01132346234624  0.73928878307831  0.22493733213321
 6  12.33528879937994 -0.09159785258526  0.25903421462146
 6  13.43876541914191  1.15141241594159  0.49744264266427
 6  14.86951328652865  0.33286656475648  0.24367903000300
 6  15.25781076917692 -0.64925720622062  1.64806473047305
 6  15.98060768916892  1.38167306930693 -0.02266906160616
 6  17.28968844694469  0.75361058545855 -0.35349222312231
 6  18.34218376577658  1.88499569076908 -0.40123026982698
 6  19.68333053415342  1.27785628042804 -0.93334341804180
 6  19.73061286258626  0.95930136043604 -2.56756254745474
 6  20.72457962686269  2.30348176617662 -0.35340043594359
 1 -3.18559919821982  3.55477672867287  1.33034243594359
 1 -9.54179816231623  3.93226231133113 -0.38919255315531
 1 -10.22140463206321 -2.62116251555156 -1.32696552245225
 1 -2.23787630443044 -1.07054467226723  2.28064811311131
 1 -1.78178751735174  1.46530700690069  0.48194464786479
 1 -1.05657704140414  0.89329764416442  3.08108881998200
 1 -1.91733990789079  2.23197177357736  2.82148826662666
 1 -3.07476980948095  0.89837772307231  3.45646151525153
 1 -2.11923094339434 -2.32233350635063 -0.23594138093809
 1 -1.41504667366737 -0.67219869276928 -1.18483827462746
 1  0.05936393469347 -0.37775920922092  0.92274814001400
 1 -0.10563428322832 -1.89989632343234  1.39159939203920
 1 -3.91922645304530  5.16953478137814  0.64298925662566
 1 -5.18413869446945  6.65963863976398  0.41718862496250
 1 -5.09208023622362  5.89574853585359  2.12654042634263
 1 -8.65910892499250  5.93389849904991 -0.23776015181518
 1 -12.29913946754676 -1.65647651515152 -1.34588901610161
 1 -13.18390460546055  0.14679107890789 -0.94301193759376
 1 -13.37861568466847 -1.22341445684568 -3.38813593069307
 1 -12.25760272407241  0.13138055955596 -3.56196836633663
 1 -11.80021684608461 -1.76398971597160 -3.16888349574958
 1 -8.47971715501550 -4.82967952355235 -2.12041426942694
 1 -7.90581579617962 -5.62248226082608 -0.92575222712271
 1 -9.41272855285529 -4.85651761296130 -0.57140253075307
 1 -3.29243882528253 -3.53959768466847 -0.11428973577358
 1  3.11044265966597 -3.30218749254926 -0.84859057615762
 1  2.71610589938994 -1.99952586758676 -1.83152338763876
 1  4.11284861256126 -0.98770151855186  0.64184778637864
 1  4.50290334733473 -0.44899837233723 -3.74157427242724
 1  6.40364394279428 -1.32460113551355 -3.09962118601860
 1  4.82223605100510 -2.49481209550955 -3.19325350915091
 1  6.62322274417442  0.72725806320632 -1.45521813901390
 1  5.92010712011201  0.53555910371037 -0.30577484088409
 1  7.34954613351335 -1.39860805790579  0.54841656325633
 1  8.12059745814581 -1.31310010031003 -1.28719819571957
 1  8.72241437283728  0.98770936573657 -0.36838962426243
 1  8.40177867596760  0.69812500070007  0.96118182658266
 1  10.09902234933493 -1.17136458015802 -0.46206336393639
 1  8.94901714601460 -1.80438925462546  1.57219558035804
 1  10.84729079847985 -1.78510239143914  1.50813270467047
 1  9.76590980258026 -0.68813003540354  2.38401970707071
 1  10.87719135693569  1.32108486838684 -0.24548171977198
 1  10.90331007760776  1.18996787238724  1.32649652995299
 1  12.21694923712371 -0.82777521702170  0.93732741604161
 1  12.79665181918192 -0.20302852345235 -0.64959795729573
 1  13.33970884088409  1.96527607260726 -0.74424332893289
 1  13.30570261506151  1.71038528982898  1.46219200860086
 1  14.66329775557556 -0.53629114511451 -0.49775796699670
 1  15.32490239013901  0.33454384988499  2.80015278827883
 1  14.50890816431643 -1.67160483238324  1.57812531063106
 1  16.17436446954695 -1.05504908800880  1.50846732443245
 1  15.82141327622762  2.22503249664967 -0.60458043274327
 1  16.04763879647965  1.74678421392139  1.04709303250325
 1  17.74713602870287 -0.19772660206021  0.22290247694769
 1  17.22562008620862  0.40743891309131 -1.49128050545055
 1  17.97963297039704  2.77721426922692 -0.99704269256926
 1  18.78210820692069  2.39268317521752  0.67849451995199
 1  19.81219378057806  0.30480332653265 -0.34363101230123
 1  19.58942726072607  1.72562761236123 -3.31733385858586
 1  20.71233552355235  0.99940813901390 -3.10549468286828
 1  19.08322104910491  0.12776505810581 -2.86746482118212
 1  20.93568034663466  2.29342892199220  0.87326808040804
 1  21.42799053935394  1.72621920462046 -0.78391110611061
 1  20.49636628952895  3.63765125232523 -0.59450424672467
 1 -0.18283390849085 -3.73968671807181  2.66666501450145
 1 -1.80021970297030 -5.25050232393239  3.44761539813981
 1 -1.79884389768977 -3.26380485758576  3.99160331353135
 8 -11.72861123542354  3.81258605780578 -1.03281509520952
 1 -13.12606311781178  2.25001624172417 -1.04773537853785

