%nproc=4
%Mem=4GB
# td=(NStates=1) iop(3/107=0140000000,3/108=0140000000) iop(3/107=0140000000,3/108=0140000000) CAM-B3LYP/6-31G(d,p) 

TD

0 1
12 -5.66219772637264  1.14571944624462  0.21343994919492
 6 -5.07377776497650 -2.14899336263626 -0.44100096689669
 6 -3.38238702780278  1.10409069386939  2.80607598089809
 6 -6.02732152785279  4.48929219341934  0.67302751155116
 6 -7.98655442254225  1.14753560426043 -2.36196386988699
 7 -4.40615486878688 -0.32723091489149  1.05130646944694
 6 -4.21548507600760 -1.65960966256626  0.60209255885589
 6 -3.31872499699970 -2.41785508830883  1.50569493319332
 6 -3.04714788578858 -1.40521341224122  2.70639719581958
 6 -3.63270069746975 -0.09835246294629  2.13213779897990
 6 -3.55619865926593 -1.83068651005101  4.04363706310631
 6 -2.02652784598460 -2.73092050135013  0.74899020452045
 6 -1.01090273377338 -3.52918049864987  1.53986757475748
 6  0.26947204770477 -3.76134997569757  0.69717791249125
 8  0.54725478977898 -3.26621393499350 -0.38485471967197
 8  1.01347819351935 -4.76029564686469  1.28216282358236
 7 -4.79232004830483  2.60789016591659  1.42344257595760
 6 -3.96609869966997  2.28778620032003  2.43404400770077
 6 -3.65295479917992  3.50252875507551  3.10461101730173
 6 -4.46314686738674  4.58403993229323  2.54098336963696
 6 -5.12760886508651  3.92792088728873  1.48945503780378
 6 -2.78044340744074  3.60654803060306  4.40750493989399
 6 -4.64031056165617  5.98518593909391  2.80389989478948
 8 -4.14234428242824  6.57844573257326  3.84801870177018
 7 -6.87232103200320  2.63986388218822 -0.67446910321032
 6 -6.88943165796580  3.95889550675067 -0.31775346404640
 6 -7.76095128152815  4.55266199099910 -1.17985209470947
 6 -8.31983143644364  3.66095302520252 -2.07337628202820
 6 -7.75243413391339  2.41756776557656 -1.71476742324232
 6 -8.09390238113811  6.02009191859186 -1.20112962176218
 6 -9.40657502080208  3.86665706390639 -3.17264189698970
 6 -8.73630508420842  4.08276642284228 -4.57972437643764
 7 -6.41981040004000 -0.15064008170817 -1.12480757275728
 6 -7.39684921452145 -0.03847991659166 -2.06412062276228
 6 -7.54515202240224 -1.29605130873087 -2.72081460406041
 6 -6.79641919071907 -2.20793036483648 -2.06322248794880
 6 -5.98280669606961 -1.45997956305631 -1.17581371177118
 6 -8.64933039083908 -1.48981910791079 -3.83892078827883
 6 -6.23987765486549 -3.58424400830083 -2.11057461256126
 8 -6.54281867736774 -4.56944464286429 -2.73044931003100
 6 -5.10876943904390 -3.55956400900090 -0.89459177897790
 6 -5.38714619201920 -4.70599604070407  0.10759443124312
 8 -5.86451222282228 -4.51486049414942  1.21828819221922
 8 -5.18402810101010 -5.91729292569257 -0.28193133773377
 6 -5.50511807600760 -7.02207406070607  0.60187201700170
 6  2.29700067326733 -5.06236735693569  0.60230418481848
 6  3.40011454645465 -4.10259041994199  1.01041894169417
 6  4.03006239643964 -3.18453132323232  0.20420405540554
 6  3.61538587748775 -3.04503944524452 -1.21853135763576
 6  5.15818224402440 -2.24592964056406  0.68099189798980
 6  6.49236410771077 -2.60084300950095  0.08989045644564
 6  7.64285960956096 -1.79627898339834  0.64757044754475
 6  9.05480630193019 -1.92992782638264 -0.07100488298830
 6  9.62837921962196 -3.26963760416042  0.09430597289729
 6  9.92457303640364 -0.73070330773077  0.42422493799380
 6  11.27156445884589 -0.72295190209021 -0.31211997819782
 6  12.26832452105210  0.34282891039104  0.15726257385739
 6  13.53320577637764  0.48758362826283 -0.68712347554755
 6  14.40734903390339 -0.73576297889789 -0.48725287618762
 6  14.21405734533453  1.67499367096710 -0.21817107190719
 6  15.52729692009201  2.05554358255826 -0.95265026002600
 6  16.17966055045504  3.44099885268527 -0.59023963716372
 6  17.47362261136114  3.90331817341734 -1.39542347754775
 6  17.15097768746875  4.14693958565857 -2.87772999719972
 6  17.95062446854685  5.23169843514351 -0.79132859175918
 1 -2.68654437723772  1.26811108650865  3.57909837823782
 1 -6.16344432323232  5.66316169656966  0.71643063476348
 1 -8.75317572477248  1.16432673557356 -3.04569004780478
 1 -3.99822088688869 -3.12233754915492  1.91810987178718
 1 -2.04255137903790 -1.10838850045004  2.90596187228723
 1 -3.01204098319832 -2.57128028922892  4.40782432643264
 1 -3.48283907660766 -0.95711561596160  4.79489151895190
 1 -4.75861837353735 -2.15851493239324  3.66056000650065
 1 -2.26107142084208 -3.20654017131713 -0.30164078787879
 1 -1.40402823522352 -1.90948006430643  0.24393251485149
 1 -0.65178061156116 -3.05449674527453  2.59198341704170
 1 -1.60452517411741 -4.45863299449945  1.88268006600660
 1 -1.80831094489449  3.07046657105711  4.17621353105311
 1 -2.43629461956196  4.57796500250025  4.66162241994199
 1 -3.32161515651565  3.15176617411741  5.43282828882888
 1 -5.32146521042104  6.45779997439744  2.05549087048705
 1 -10.03141227472747  2.86965762286229 -3.39198244994499
 1 -10.09132993089309  4.75998984308431 -2.90605089578958
 1 -9.43179297909791  4.14128254225422 -5.25526072837284
 1 -7.98352786218622  4.91412115751575 -4.49341929692969
 1 -8.08727857685768  3.27112647144714 -4.94500442524252
 1 -8.38408599819982 -0.78182872577258 -4.82995399369937
 1 -8.43920490349035 -2.52458586368637 -4.09133177017702
 1 -9.57535761526153 -1.24994181758176 -3.49256616331633
 1 -4.32086944434443 -3.89711453805381 -1.58520180708071
 1  2.52527366036604 -6.10570851385139  0.89310526742674
 1  2.14405514891489 -5.05696267236724 -0.40801425102510
 1  3.63273539583958 -4.27239652145215  2.03742875047505
 1  2.48512349904990 -3.18951457255726 -1.36143868486849
 1  3.60683529682968 -2.15906946624662 -1.79597206770677
 1  4.29928210221022 -3.70063379257926 -1.84232315821582
 1  5.05530557145715 -1.23640006400640  0.54818670217022
 1  5.27760628792879 -2.36641827422742  1.77348222852285
 1  6.87386491319132 -3.50735392749275  0.00328821282128
 1  6.40407056745674 -2.24312192119212 -1.11668226372637
 1  7.30034896619662 -0.63252657775778  0.80216746224622
 1  7.83015511841184 -2.14770135323532  1.69699408470847
 1  8.99938404770477 -1.80705898109811 -1.07413075117512
 1  8.83025754445445 -3.92224099549955 -0.36309010141014
 1  10.63812315311531 -3.51209541164116 -0.42232234573457
 1  9.81804086548655 -3.51971306280628  0.93614405710571
 1  9.43762291289129  0.21380710691069  0.03605896969697
 1  10.06478657615762 -0.70604713861386  1.58588812881288
 1  11.73918906020602 -1.70362039393939  0.00722634943494
 1  11.18144423112311 -0.69180208510851 -1.33934526812681
 1  11.90440147364736  1.51057548674868  0.46257670247025
 1  12.65353017631763 -0.01053986258626  1.07013529372937
 1  13.04220102080208  0.63597803010301 -1.77895013371337
 1  14.64349368766877 -1.05314352705270  0.57215289528953
 1  13.86155172617262 -1.55992500880088 -0.98338465996600
 1  15.37685867426743 -0.63238643684368 -1.12059895239524
 1  13.49103729792979  2.61314593369337 -0.52610439813981
 1  14.46709340964096  1.70161045024502  1.02813002690269
 1  16.14416607240724  1.24055266796680 -0.85699218991899
 1  15.34399998339834  2.06993090589059 -2.07789916961696
 1  15.42124352895290  4.02751812981298 -0.66951894999500
 1  16.61547431753176  3.61298794019402  0.31095099549955
 1  18.22376605800580  3.10611210241024 -1.36682576217622
 1  16.56634735513551  5.02656918581858 -2.81918427822782
 1  18.06458238173817  4.61520103340334 -3.26755136023602
 1  16.69909010921092  3.29662073207321 -3.40057809240924
 1  17.91945799299930  5.10936215371537  0.37963962816282
 1  19.04987250955095  5.59737388958896 -0.98343525792579
 1  17.34529608050805  6.18962846594659 -0.96057011831183
 1 -5.07974327572757 -7.92620205330533  0.08538500080008
 1 -6.66095052535254 -7.10014710131013  0.81408491599160
 1 -4.95150331893189 -6.77970954655466  1.61733619021902
 8 -7.61430902250225  6.93398989978998 -0.51759954395440
 1 -8.76341463856386  6.33589923482348 -2.11856753955396

