%nproc=4
%Mem=2GB
# td=(NStates=1) iop(3/107=0140000000,3/108=0140000000) iop(3/107=0140000000,3/108=0140000000) CAM-B3LYP/6-31G(d,p) 

TD

0 1
12 -6.83748632073207  0.54314345844584  0.16318393789379
 6 -4.50431753825382 -2.01966038783878  0.51330160716072
 6 -4.12739455485549  2.66773840694069  0.90107298889889
 6 -8.97203990869087  3.17479150325033 -0.15448495019502
 6 -9.31344944254425 -1.73322635223522 -0.63393345204520
 7 -4.60527559945995  0.42324172187219  0.42350138223822
 6 -4.01453871947195 -0.71842154895490  0.66149670507051
 6 -2.60096351495149 -0.56571833103310  1.06271833413341
 6 -2.35225519131913  0.94092424122412  1.14537670017002
 6 -3.79814607750775  1.53106319151915  0.78531330603060
 6 -2.04188047374737  1.31220301620162  2.52872743554355
 6 -1.64880362876288 -1.10186274967497 -0.09087776147615
 6 -0.25377349564957 -1.41228293489349  0.43235230873087
 6  0.73129420862086 -1.23198043494349 -0.73279145294529
 8  0.79870993909391 -0.56680929342934 -1.79109009920992
 8  1.84237452405241 -2.06930722932293 -0.40101502400240
 7 -6.65830757295730  2.59417978797880  0.23114686258626
 6 -5.41754231513151  3.19523816701670  0.46926322252225
 6 -5.75420963616362  4.66461614641464  0.55496036463646
 6 -7.10648136153615  4.93751984248425  0.29322590589059
 6 -7.76921862576258  3.39653846224622  0.12132696409641
 6 -4.79933485378538  5.71426885738574  1.07924559255926
 6 -7.91008256955696  6.21775869596960  0.30570009370937
 8 -7.25784970117012  7.21100271687169  0.54602245904590
 7 -8.70388394189419  0.78323918311831 -0.47853050215022
 6 -9.44205787818782  1.84198893419342 -0.44434548684869
 6 -10.68398502880288  1.61632150325033 -0.74541032223222
 6 -10.91766612411241  0.26224712911291 -1.02855371087109
 6 -9.50860252355236 -0.39727789098910 -0.64271634833483
 6 -11.89602637793779  2.52512870597060 -0.86459110991099
 6 -12.04462758325833 -0.57956151845185 -1.39291742544254
 6 -12.33781064316432 -0.81104326952695 -2.78344113881388
 7 -6.96509299219922 -1.43381594289429  0.02666002150215
 6 -8.05879854145414 -2.15816581328133 -0.41561475947595
 6 -7.62615020012001 -3.63053037543754 -0.41349235933593
 6 -6.28497411861186 -3.65525468636864 -0.02922118271827
 6 -5.93356964566457 -2.30904971947195  0.30022620692069
 6 -8.42663118661866 -4.72031940974097 -0.95920873677368
 6 -5.18532473697370 -4.43525932403240  0.16548457415742
 8 -4.98098984768477 -5.64807534583458  0.07809831643164
 6 -4.00606433183318 -3.35757631683168  0.50553520072007
 6 -3.36262977387739 -3.78205438093809  1.85321503450345
 8 -4.02530777087709 -4.05136187098710  2.84613328312831
 8 -2.05682735763576 -3.55508181348135  1.77529746894689
 6 -1.33690221232123 -4.07413250335034  3.03440786598660
 6  2.80913280608061 -2.11336651355136 -1.29326057015702
 6  3.95202897029703 -1.15448244934493 -0.93342887518752
 6  5.02389314471447 -0.96222309370937 -1.71711791339134
 6  5.33042702650265 -1.84157729242924 -3.11540852305231
 6  6.08590241484148 -0.08649630253025 -1.37175373387339
 6  7.42959165316532 -0.88802458455846 -0.69992672997300
 6  8.39240180048005  0.36826246084608 -0.47245572607261
 6  9.72776586598660 -0.41332825312531 -0.11849015471547
 6  9.61367888418842 -1.02032084678468  1.33356772557256
 6  11.00391272127213  0.68559341354135 -0.06298145974597
 6  12.31773704420442 -0.03114180698070  0.18882719391939
 6  13.48071961456146  0.90230750545054  0.28360125852585
 6  14.79874620982098  0.06734001210121  0.40131479357936
 6  15.07235222332233 -0.26345862636264  2.04204412841284
 6  15.91655128352835  1.30405530753075  0.18787199249925
 6  17.22494197229723  0.83215844024402 -0.14971184508451
 6  18.35644519191919  1.88715590679068 -0.32582272907291
 6  19.84941714281428  1.35182367716772 -0.43255333903390
 6  19.83861366266627  0.21040647094709 -1.62980877207721
 6  20.63934110301030  2.61046246424642 -0.25823091899190
 1 -3.36764740304030  3.44426567756776  1.25927532923292
 1 -9.79316329882988  3.84163324842484 -0.37163079697970
 1 -10.36425891749175 -1.94669506880688 -0.51018384428443
 1 -2.44364688148815 -1.05546316411641  2.08488853715372
 1 -1.91100043864386  1.20897137333733  0.32421887528753
 1 -1.37537892159216  0.51873018741874  2.91963267436744
 1 -2.06610478437844  2.18890746714672  2.84265038283828
 1 -2.85221755425543  1.09926781208121  3.22743861296130
 1 -1.67214623492349 -2.34071534453445 -0.50441822862286
 1 -1.76285145414541 -0.51303277617762 -1.08965875667567
 1  0.43152115041504 -0.30626205950595  0.98482434763476
 1 -0.47269098889889 -2.30585691949195  1.16180641274127
 1 -3.78147267766777  5.65040286818682  0.30436539423942
 1 -5.49356963756376  6.75082775867587  1.04272117821782
 1 -4.43721474967497  5.44673363436344  1.97162493479348
 1 -8.85887890199020  6.27945305450545 -0.08044442024202
 1 -12.00045959955995 -1.65904677217722 -0.75704013121312
 1 -13.00349656465647 -0.24480808100810 -0.88043567996800
 1 -13.38145596869687 -1.94138625402540 -2.77687480458046
 1 -12.63480044384439 -0.17408998749875 -3.71090325982598
 1 -11.36946377077708 -1.25376869386939 -3.11285789318932
 1 -8.51809099239924 -5.34258081368137 -2.10718294629463
 1 -7.72702791739174 -5.64146415901590 -0.45445509740974
 1 -9.36871415141514 -4.40335229642964 -0.46697208770877
 1 -3.26513609500950 -3.61049477437744 -0.11706001280128
 1  3.32462407780778 -3.01225849964997 -1.31895761286129
 1  2.61786607540754 -2.17365328032803 -2.32508274357436
 1  3.66929425712571 -0.42714546294629  0.05775937753775
 1  4.54680773777378 -1.78998247074708 -3.62082219721972
 1  6.46358993739374 -1.50294897029703 -3.83029425332533
 1  5.21532535993599 -3.21439405370537 -2.88755293909391
 1  6.51377179907991  0.52828816621662 -2.44773739093909
 1  5.88555366476648  1.12900844864486 -0.68417268066807
 1  7.22812399129913 -1.23739193629363  0.16694841644164
 1  7.74982038043804 -1.63712250255025 -1.45043451935194
 1  8.63008513991399  0.82576317111711 -1.45206799209921
 1  8.21093959205921  1.13869905810581  0.42074778317832
 1  9.81242368946895 -0.94666210991099 -1.11913907150715
 1  8.14916716101610 -1.29750856655665  1.26466482728273
 1  10.48267433683368 -1.84684856605661  1.50383227462746
 1  10.06544975657566 -0.04579580198020  2.25259656475648
 1  11.09095273307331  1.19181194109411 -0.99775694729473
 1  10.67071681828183  1.27327620322032  0.68164204450445
 1  12.20353789598960 -0.49777221672167  1.05867955125513
 1  12.60574272827283 -0.60908912951295 -0.80681367886789
 1  13.75639050905091  1.62572211721172 -0.62962186678668
 1  13.53825587038704  1.40004425572557  1.28286407580758
 1  15.02147357315732 -0.56155367136714 -0.50566875807581
 1  14.82004190409041  0.70851124662466  2.57700047304731
 1  14.75567284078408 -1.51141881378138  2.17102460056006
 1  16.06595362846285 -0.56851043414341  2.49244572227223
 1  15.54884601950195  1.91435142854285 -0.39153912861286
 1  16.02358639123912  2.14788432393239  1.05944426762676
 1  17.60075139023902  0.04863803440344  0.61932211891189
 1  17.09062658685869  0.34400256945695 -1.10987236463646
 1  18.03283829092910  2.53655020282028 -1.42357534583458
 1  18.12149214531453  2.71801570847085  0.44584125462546
 1  19.77195975717572  0.58231107730773  0.54682803360336
 1  19.93766208420842  0.57336238583858 -2.72773489868987
 1  20.72506679667967 -0.24014581638164 -1.84419855325533
 1  18.99824255125512 -0.40483820222022 -1.69292736743674
 1  20.35647242584258  3.35548512761276  0.55572632623262
 1  21.75377311761176  2.05085166786679 -0.08577129212921
 1  20.63839049194920  3.07505499269927 -1.48624342064206
 1 -0.47184280938094 -4.09839258865887  2.85447379537954
 1 -1.75144482548255 -4.88491576527653  3.73781441804180
 1 -0.94423843714371 -3.63682215931593  3.71704585778578
 8 -11.76291466576658  3.79020381958196 -0.86667848154815
 1 -13.05769628112811  2.30728196829683 -0.85994659965997

