%nproc=4
%Mem=2GB
# td=(NStates=1) iop(3/107=0140000000,3/108=0140000000) iop(3/107=0140000000,3/108=0140000000) CAM-B3LYP/6-31G(d,p) 

TD

0 1
12 -6.71224379647965  0.51221036513651  0.23089070857086
 6 -4.68259536603660 -2.00711913371337  0.52457273427343
 6 -4.17584940034003  2.75859749284928  0.89385226682668
 6 -8.78505120982098  3.23287731183118 -0.32005150685068
 6 -9.55377347494750 -1.74696772637264 -0.44594465316532
 7 -4.66398147004700  0.27598699639964  0.64246327842784
 6 -4.07470473607361 -0.93241294809481  0.58569912531253
 6 -2.57646106470647 -0.63218497769777  0.95267733003300
 6 -2.49688965476548  0.92134228302830  1.24387655015502
 6 -3.92158842174217  1.39702978817882  0.82853762846285
 6 -1.94983126882688  1.24168596449645  2.46511107390739
 6 -1.83359210761076 -1.26970953435344 -0.31394006770677
 6 -0.13840195849585 -1.21518322492249  0.22748182168217
 6  0.69414049324933 -1.53168040494049 -0.99020719451945
 8  0.61804187228723 -1.21989460196020 -2.14037502770277
 8  1.73051333793379 -2.09473977257726 -0.49426434893489
 7 -6.44256599879988  2.55626599659966  0.40328407630763
 6 -5.44070463136314  3.26891553475348  0.67731402760276
 6 -5.76251046624663  4.66934661946195  0.70880574917492
 6 -6.93296400980098  4.79669576007601  0.34347093039304
 6 -7.47241894579458  3.47041584998500  0.07196202760276
 6 -4.97743266356636  5.64766219671967  1.16942461046105
 6 -7.84610617191719  6.08844576467647  0.27442696639664
 8 -7.29273318951895  7.18737035363536  0.36425428222822
 7 -8.77446099959996  0.77230809000900 -0.41931458055806
 6 -9.36149982238224  1.91921665696570 -0.48782983528353
 6 -10.75493212351235  1.69962983408341 -0.84313009420942
 6 -11.01602596009601  0.24778568296830 -0.91199205470547
 6 -9.67946961026102 -0.24150231343134 -0.51500357705771
 6 -11.77620439573957  2.74007020012001 -0.95100975177518
 6 -12.24327744824482 -0.57390095239524 -1.13749188288829
 6 -12.26299316141614 -0.51858402360236 -2.52380517521752
 7 -7.01655813871387 -1.45450801210121 -0.08707135163516
 6 -8.22864552615262 -2.19861985868587 -0.23501669966997
 6 -7.78710629572957 -3.55360268266827 -0.25213622372237
 6 -6.39634525572557 -3.65068422932293  0.04642638203820
 6 -6.07275356405641 -2.21030984548455  0.22317850215022
 6 -8.65590411391139 -4.70951832963296 -0.63259607550755
 6 -5.13972017651765 -4.45967176527653  0.14670269596960
 8 -4.87982973167317 -5.66828736703670  0.15545605220522
 6 -4.04316804220422 -3.39099965916592  0.47493214041404
 6 -3.28400191109111 -3.59418559405941  1.79178889188919
 8 -3.60548578867887 -3.83446018081808  2.97671634143414
 8 -1.87628930383038 -3.60201650695069  1.51494143334333
 6 -0.94200272237224 -3.97407249734974  2.63659808500850
 6  2.93832572537254 -2.48050322722272 -1.32112335643564
 6  3.97564133153315 -1.33751075217522 -0.96412194449445
 6  5.02418317371737 -1.11962883428343 -1.82385858745875
 6  5.34196818061806 -1.79372250695069 -3.18016499869987
 6  6.04228805340534 -0.16441409430943 -1.36072263076308
 6  7.37484617861786 -0.98942472457246 -1.08645538283828
 6  8.30155271557156  0.23036867146715 -0.56108458895890
 6  9.70684377377738 -0.45246216651665 -0.14035234093409
 6  9.55745326162616 -1.27816663136314  1.23842821162116
 6  10.82376470647065  0.58986384058406 -0.07539270087009
 6  12.38003327382738  0.13291459865987  0.13503181438144
 6  13.31687322992299  1.31937921262126 -0.00252735433543
 6  14.68613494869487  0.73143642174217  0.43997865996600
 6  14.85430041814181  0.18011573107311  1.92996292029203
 6  15.85260488888889  1.47782268426843  0.09847305260526
 6  17.35588506660666  0.83590881528153  0.22949607570757
 6  18.42608215561556  1.88197538873887 -0.27787793459346
 6  19.89507170827083  1.22318081288129 -0.08320840454045
 6  20.23946374767477  0.28226365666567 -1.29823561476148
 6  20.81398856775678  2.42272369036904 -0.04982007790779
 1 -3.77211785008501  3.51168241924192  1.33555295699570
 1 -9.37073105560556  4.31116020112011 -0.38973260716072
 1 -10.22689518111811 -2.50330072937294 -0.69805263116312
 1 -2.09384190099010 -1.12768038583858  1.96356640494049
 1 -1.60423976257626  1.39197967416742  0.53440989438944
 1 -1.03133451715172  1.00340865526553  2.85970668176818
 1 -2.29979815371537  2.18104668106811  2.82391850965097
 1 -2.69331166366637  0.61836972227223  3.24254012311231
 1 -2.28336735703570 -2.27276854985499 -0.51196898369837
 1 -1.96267143614361 -0.52299377227723 -1.29499929072907
 1  0.31057905620562  0.05395396209621  0.56475234043404
 1 -0.13600732053205 -1.79399573337334  1.43055328742874
 1 -4.00652518291829  5.94701252915292  0.64535949364936
 1 -5.80293057365737  6.66081875777578  0.93262016811681
 1 -4.43572460066007  5.27231619261926  2.13544131643164
 1 -8.92484549864986  6.18964407360736  0.02140576477648
 1 -11.86381593519352 -1.60872173967397 -0.60432485968597
 1 -13.05807202220222 -0.08215181538154 -0.92907054345434
 1 -13.26165398849885 -1.24179629502950 -2.81802891999200
 1 -12.74360132393239  0.44357177867787 -2.94668683818382
 1 -11.19299612401240 -0.48945226222622 -3.21835844324432
 1 -9.45827501080108 -4.45197175277528 -1.49934216221622
 1 -7.88253346794679 -5.40807081968197 -1.25462511441144
 1 -9.35220250025002 -4.90399236043604  0.46307091659166
 1 -3.23107268866887 -3.55453917881788 -0.37356566336634
 1  3.52570418581858 -3.32566984078408 -0.85482119921992
 1  2.76226051485149 -2.69138505350535 -2.57124736003600
 1  3.68847617531753 -0.82767551595160  0.22500610221022
 1  4.64920797779778 -1.50471394389439 -3.97313742874287
 1  6.57092067046705 -1.36543521892189 -3.55084630853085
 1  5.27400122752275 -3.00688330263026 -2.94198838263826
 1  5.98025844774477  0.50147548494850 -1.96706932413241
 1  5.86518162756276  0.15336088388839 -0.54263852725272
 1  6.95869704860486 -1.95520371747175 -0.28491677007701
 1  7.77403280168017 -1.52514130443044 -1.95580505640564
 1  8.42760489188919  1.20301089588959 -1.38468125342534
 1  7.99411790989099  0.62172736093609  0.56827253565357
 1  9.98905135223522 -1.34952239593959 -1.02318947654765
 1  9.11793403770377 -1.97999681538154  0.92970133093309
 1  10.47086315571557 -1.94672855405541  1.85069696109611
 1  9.37235044664467 -0.71214243664366  2.13111441654165
 1  10.75952959075908  0.99101186108611 -1.09415658725873
 1  10.69243899049905  1.46550542614262  0.78406228652865
 1  12.65767330953095 -0.38460089958996  0.94939862316232
 1  12.22436459045905 -0.79691791239124 -0.81092408990899
 1  13.26581145114512  1.71794133913391 -1.04357326192619
 1  13.22437448224822  1.93820807210721  0.91531732113211
 1  14.63480490629063 -0.20825834183418 -0.19923811501150
 1  14.59918981888189  1.14189458495850  2.68882165516552
 1  13.99216649014901 -0.14044171607161  2.29439693779378
 1  15.91962899599960 -0.00757434053405  2.13476995469547
 1  15.87871900680068  2.09890988438844 -0.53476345104510
 1  16.39798383098310  2.14033356885689  0.98556687988799
 1  17.65962727782778  0.41208437903790  1.47940812751275
 1  17.14279180338034 -0.36531836263626 -0.08293967136714
 1  18.48362336943694  2.38216476427643 -1.25934892319232
 1  18.37717771387139  2.77926183308331  0.39787645814582
 1  19.55085764696470  0.77733057925792  0.86143949474947
 1  19.96368468646865  0.78138318791879 -2.39020114531453
 1  21.26985127512751  0.02589078727873 -1.23675780918092
 1  19.53914664166417 -0.85873359175918 -1.45151322602260
 1  20.56760353895389  3.02437201630163  0.77393814741474
 1  21.85780352065207  2.20305688838884 -0.17790050505050
 1  20.56762341524152  2.99396688388839 -1.02204700100010
 1 -0.08797442254225 -3.56969971937194  2.22916126412641
 1 -1.08232791379138 -5.17974524822482  2.58513915051505
 1 -1.02260627392739 -3.22273075017502  3.50523467666767
 8 -11.59938831313131  3.86851165036504 -0.88879069276928
 1 -12.77994850635064  2.28963020312031 -1.58474907990799

