%nproc=4
%Mem=2GB
# td=(NStates=1) iop(3/107=0140000000,3/108=0140000000) iop(3/107=0140000000,3/108=0140000000) CAM-B3LYP/6-31G(d,p) 

TD

0 1
12 -6.64367693979398  0.74096324042404  0.05845346484648
 6 -4.40831793829383 -1.98611703350335  0.46819709670967
 6 -4.32361417681768  2.73585521862186  1.15043792539254
 6 -8.96267897259726  3.12978700280028 -0.37708721042104
 6 -9.34847294489449 -1.71843487308731 -0.65882594129413
 7 -4.71553662556256  0.47192659035904  0.65998503060306
 6 -3.92360962656266 -0.74035374217422  0.65110566596660
 6 -2.46687010561056 -0.43598535773577  0.88404046634663
 6 -2.45884585038504  1.01590173897390  1.08137029952995
 6 -3.86062232513251  1.35609569476948  1.07651242594259
 6 -1.92658894459446  1.11827362326233  2.50972553535354
 6 -1.59173792219222 -0.86252881628163 -0.29223789748975
 6 -0.28667678597860 -1.19396110271027  0.17440651415142
 6  0.77339841904190 -1.15888312521252 -0.92491066486649
 8  0.60012008010801 -0.66007862036204 -2.05340633083308
 8  1.75860614721472 -2.18545884448445 -0.66512143464346
 7 -6.56469821202120  2.56078644864486  0.35430917881788
 6 -5.56020658155816  3.26053469666967  0.74907120332033
 6 -5.73384759996000  4.75382506730673  0.69487435603560
 6 -7.11861257465747  4.86102219271927  0.28652523582358
 6 -7.73989569346935  3.52815162356236  0.10940577197720
 6 -4.78811373167317  5.73414084458446  0.96286395439544
 6 -8.08686024732473  6.03860078017802  0.39206873057306
 8 -7.68128204440444  7.24324594119412  0.40868872567257
 7 -8.72207576107611  0.75107596679668 -0.39861251035104
 6 -9.44046771917192  1.85224996029603 -0.47317837013701
 6 -10.92609924022402  1.56163603470347 -0.71365714691469
 6 -11.01675603310331  0.19368027242724 -0.86205706120612
 6 -9.64006566986699 -0.36251441464146 -0.54577665436544
 6 -12.08614538983898  2.53531972507251 -0.96351100190019
 6 -12.19703282378238 -0.57102066436644 -1.11352948664866
 6 -12.44008087018702 -0.88263042824282 -2.61120391509151
 7 -6.98000448334833 -1.42741530283028  0.00843819931993
 6 -8.13678634023402 -2.17680767746775 -0.43985718371837
 6 -7.59306689178918 -3.55101242364236 -0.52754376447645
 6 -6.19667528872887 -3.55505466636664 -0.12227048764877
 6 -5.81728801750175 -2.23514232873287  0.15021120542054
 6 -8.56257478097810 -4.86117349514952 -0.81055387128713
 6 -5.05194139863986 -4.46075187328733  0.27889591529153
 8 -4.94252600130013 -5.56696723502350  0.20951145774577
 6 -3.99376310171017 -3.48956951615162  0.56124077127713
 6 -3.24226773767377 -3.66481265676568  1.96267598059806
 8 -3.83816905700570 -3.84041077587759  2.98976764656466
 8 -1.73924559945995 -3.79859616491649  1.84965490469047
 6 -1.12225074717472 -4.17931302140214  3.07011143634363
 6  2.73593548634864 -2.27540271717172 -1.73454469856986
 6  3.98788255565557 -1.30532753385339 -1.14532006430643
 6  4.96763751915192 -1.12572944434443 -1.91186738833883
 6  5.49855383918392 -1.53314644934493 -3.33418040024002
 6  6.10150397499750 -0.10860851375138 -1.34701125962596
 6  7.40880957495750 -0.80018580068007 -0.63409014631463
 6  8.54898745904590  0.22050768536854 -0.52670115061506
 6  9.75866895629563 -0.42094901520152 -0.04921322702270
 6  9.58016553285328 -0.76166498119812  1.58210257905791
 6  10.99907223722372  0.58560341454145 -0.09237439903990
 6  12.41586685718572 -0.20978967176718  0.33792210341034
 6  13.57018856145615  0.90254752945295  0.29420231863186
 6  14.94680101530153  0.20576385448545  0.53638830093009
 6  15.10033502160216 -0.09963224372437  2.07353727772777
 6  15.99798942734273  1.26325122712271  0.17395060036004
 6  17.21614109220922  0.72613783818382  0.00355348144815
 6  18.38532808020802  1.79507669886989 -0.20512065886589
 6  19.71907410851085  1.07452594739474 -0.26545662936294
 6  19.75825562686269  0.45295072537254 -1.72967875907591
 6  20.83194036293629  2.24046546454646 -0.15203029892989
 1 -3.72408304660466  3.60810206120612  1.45118452015202
 1 -9.67516149864986  3.87452653775378 -0.86527016091609
 1 -10.54292678427843 -2.55456585588559 -0.68750157605761
 1 -2.34929744654465 -0.85108272607261  1.98056810511051
 1 -1.66282562116212  1.76939741594160  0.41160761416142
 1 -0.60535191889189  0.73143145754575  2.51179189028903
 1 -1.71746992089209  2.14312288868887  2.91435755355536
 1 -2.87013934643464  1.09189707500750  3.18377424652465
 1 -1.86832585288529 -1.75012628562856 -0.83529131593159
 1 -1.46936210521052 -0.06924839773977 -0.84499429022902
 1 -0.02598460016001 -0.29167060036004  0.83844971017102
 1 -0.28905262506251 -2.28231456525653  0.36522675477548
 1 -4.03791832223222  5.57659548744874  0.35316027372737
 1 -5.24261454205421  6.63463613951395  0.73702060816082
 1 -4.09088011621162  5.82478143914392  1.98262603490349
 1 -9.37766078017802  5.75069017821782  0.25848947314731
 1 -12.28847840144014 -1.56366723422342 -0.61135556275628
 1 -13.05842205720572 -0.16901050125012 -0.31180881728173
 1 -13.44489231233123 -1.16242835823582 -3.00987810491049
 1 -12.41838880268027 -0.08127070557056 -3.32924509400940
 1 -11.58205502990299 -1.21973529052905 -3.13074968236824
 1 -9.40470965426543 -4.31831838743874 -1.68259048704871
 1 -8.10578579317932 -5.73136314891489 -1.03263291519152
 1 -9.32442972297230 -4.95004696589659  0.20637524702470
 1 -3.12187176857686 -3.46350007490749 -0.16458476527653
 1  2.99166078147815 -3.25090236403640 -1.49554527162716
 1  2.31410569936994 -1.77511342634264 -2.61767200250025
 1  4.10718804650465 -1.17766051445145 -0.00403680208021
 1  4.94062711971197 -1.24279775227523 -4.21526164116412
 1  6.61454503290329 -1.20752942834283 -3.35642686658666
 1  5.51012483988399 -2.70351296559656 -3.17943212701270
 1  6.25220564246425  0.79907524492449 -2.19788240544054
 1  5.89114422382238  0.53408895669567 -0.47685194859486
 1  7.29699087798780 -1.38480667776778  0.45389711131113
 1  7.43703910231023 -1.71177996829683 -1.48588806470647
 1  8.96054818621862  0.60307090189019 -1.96645943124312
 1  8.27176567466747  1.01827701590159  0.01610731913191
 1  10.07907035413541 -1.49129657335734 -0.76704386198620
 1  8.73376562086209 -1.46630544624462  1.29019738053805
 1  10.77138320772077 -1.14123800500050  1.68875076647665
 1  9.34897810941094 -0.12430365276528  2.24503580868087
 1  10.98637227502750  1.06487924782478 -1.11967913951395
 1  10.91651139773977  1.30679955555555  0.47095097539754
 1  12.32324986718672 -0.67675011451145  1.22554623792379
 1  12.69798195219522 -0.94983320392039 -0.52276527402740
 1  13.55111998199820  1.61813135813581 -0.55295420002000
 1  13.44352639743974  1.46115036633663  1.18632442184218
 1  15.20303172897290 -0.77883539953995 -0.23290148134814
 1  14.61321122102210  0.73594398989899  2.71659443244324
 1  14.63745101860186 -0.93419109100910  2.46097359545955
 1  16.13874090719072 -0.28121170427043  2.61655813351335
 1  15.84690582548255  1.54428442184218 -0.48058803350335
 1  16.09951398399840  2.15122465796580  1.08748707190719
 1  17.43122443754375  0.06751992259226  0.61753193989399
 1  17.25159268346835  0.44051222042204 -0.68425980338034
 1  17.88203321042104  2.45320186798680 -1.04524751305131
 1  18.63060305640564  2.46243014991499  0.43168983948395
 1  19.90061262246225  0.10197304350435  0.30819417021702
 1  19.62685100310031  1.00835588518852 -2.94199632483248
 1  20.64325861586158  0.02094029222922 -1.79854398779878
 1  19.06487921492149 -0.43374109250925 -1.76073414811481
 1  20.31836861546154  3.01028060716072  0.71477223082308
 1  21.86939467976798  2.24678126082608 -0.21374408940894
 1  20.92658931183118  3.03791127832783 -1.16813160946095
 1 -0.53423904900490 -4.23752650205021  2.24873322132213
 1 -1.36571625262526 -4.90604787848785  3.68781941854185
 1 -0.81674568786879 -3.50571904900490  3.74899905310531
 8 -11.91699007330733  3.64109890909091 -0.80785259895990
 1 -13.01850236173617  2.32631387148715 -1.12418302330233

