%nproc=4
%Mem=4GB
# td=(NStates=1) iop(3/107=0140000000,3/108=0140000000) iop(3/107=0140000000,3/108=0140000000) CAM-B3LYP/6-31G(d,p) 

TD

0 1
12 -5.57865937253725  1.25964083838384  0.16434503970397
 6 -5.08983937113711 -2.07618608190819 -0.37715458225823
 6 -3.35574436353635  1.06195648044804  2.69475484878488
 6 -6.05483427912791  4.58718198239824  0.64200440924092
 6 -7.86099186628663  1.17429828052805 -2.37766544004400
 7 -4.32073632693269 -0.26760495229523  0.97015835463546
 6 -4.35084861236124 -1.60687438903890  0.63924627422742
 6 -3.30604372887289 -2.38862216501650  1.46607097079708
 6 -2.96596976797680 -1.48238112901290  2.65736229232923
 6 -3.52542997039704 -0.11008363606361  2.06241082628263
 6 -3.51473451285129 -1.79686312771277  3.93929662906291
 6 -1.95112030523052 -2.67999540884088  0.60124543004300
 6 -1.03224486798680 -3.49453703430343  1.38101168916892
 6  0.24785988648865 -3.90142398309831  0.57213540824082
 8  0.53580364466447 -3.51512882648265 -0.53169940414041
 8  1.05354219991999 -4.78700831813181  1.16221082838284
 7 -4.92482329862986  2.67424680158016  1.49655988768877
 6 -3.95962805260526  2.30166758845885  2.45053565686569
 6 -3.51020052375238  3.62907140934093  3.09056961316132
 6 -4.37036758945895  4.56653818211821  2.49186845814581
 6 -5.15367147134713  3.93904199939994  1.53630972327233
 6 -2.67515287838784  3.82871024682468  4.32296648604861
 6 -4.54881141174117  5.97093451395139  2.94409391419142
 8 -4.00082013001300  6.60700858885889  3.80642454235424
 7 -6.71866566646665  2.60490038583858 -0.72817447374737
 6 -6.78032074687469  3.97694731193119 -0.41257294599460
 6 -7.77799298569857  4.61396812161216 -1.23629773927393
 6 -8.25554500780078  3.55913284318432 -2.14545348974897
 6 -7.64335322582258  2.38785479427943 -1.70359630613061
 6 -8.09805279617962  6.03954386378638 -1.07926743554355
 6 -9.19814417771777  3.75953635183518 -3.18431306410641
 6 -8.81451290499050  4.17016516271627 -4.62721912591259
 7 -6.38018643764376 -0.09806482418242 -1.09493458545855
 6 -7.27933746334633 -0.00203627222722 -2.13388759945995
 6 -7.51172868006801 -1.31439314291429 -2.71611413401340
 6 -6.66282583138314 -2.21771134293429 -2.03279944564456
 6 -5.98611702710271 -1.31336490159016 -1.07941407180718
 6 -8.38440389818982 -1.65661578757876 -3.85287218341834
 6 -6.23212687978798 -3.54921050495050 -1.93326688178818
 8 -6.66732112761276 -4.56124382278228 -2.50427669276928
 6 -5.07319588168817 -3.53623167576758 -0.83147546734673
 6 -5.47367484488449 -4.60212565366537  0.16219989178918
 8 -5.91344711631163 -4.50469947804781  1.29153551695170
 8 -4.91317101530153 -5.79579077547755 -0.18836198079808
 6 -5.31141870607061 -6.86802865616562  0.69502133193319
 6  2.30861183438344 -5.21141226142614  0.60405435983598
 6  3.37878241324132 -4.30548070897090  1.01479937973797
 6  3.98178756895690 -3.42287515761576  0.16033966896690
 6  3.61679601850185 -3.19614455575558 -1.14957446194619
 6  5.04292071787179 -2.57856290389039  0.79899369816982
 6  6.41310618191819 -2.70314323952395 -0.01205973857386
 6  7.53996932053205 -1.82096145164516  0.58772446294629
 6  8.89588040934093 -1.99254408800880 -0.15924370687069
 6  9.46686306800680 -3.32456309670967  0.01354789708971
 6  9.94245482458246 -0.83919415681568  0.36569908540854
 6  11.29261656405641 -0.79723933083308 -0.30751951815182
 6  12.04308199679968  0.27937256475648  0.11148799639964
 6  13.38104055985598  0.46711158105811 -0.57900266346635
 6  14.39260755975597 -0.64641404400440 -0.40293444434443
 6  14.10973691329133  1.81180735233523 -0.17512676747675
 6  15.37841203160316  2.11925995419542 -0.99285428042804
 6  15.95914849924992  3.48823357615762 -0.56531714491449
 6  17.22057730683068  4.02063990559056 -1.27503143834383
 6  17.01978456815682  4.19010390209021 -2.80105232943294
 6  17.51345075117512  5.33603886918692 -0.67458691759176
 1 -2.52925864866487  1.24114839023902  3.34029449784979
 1 -6.40401838063806  5.75815119551955  0.67737672937294
 1 -8.62613302050205  1.12983328622862 -3.10874635343534
 1 -3.57598866366637 -3.30806612201220  1.77503556435644
 1 -1.94126125002500 -1.24190185178518  2.85691696779678
 1 -2.94540431953195 -2.78634179537954  4.28496204020402
 1 -3.40408120082008 -1.00329023342334  4.46640867066707
 1 -4.52528504020402 -2.26493557445744  3.98790274077408
 1 -2.65834114781478 -3.32843236053605 -0.22676330013001
 1 -1.60222805520552 -1.53231234753475  0.06028415001500
 1 -0.74434986848685 -3.04992628822882  2.42483670237024
 1 -1.48479320092009 -4.46882401360136  1.81596339433943
 1 -1.51599171297130  3.46271579597960  3.92996890659066
 1 -2.62677366746675  4.94920212621262  4.59728598629863
 1 -3.21259425442544  3.31370236773677  5.17690269626963
 1 -5.25419848374837  6.69723391779178  2.34901022242224
 1 -9.67167630113011  2.86710736783678 -3.29190244194419
 1 -10.09366016391639  4.45040888498850 -2.60831112181218
 1 -9.71776157595760  4.31614002800280 -5.22600780308031
 1 -8.22944245364537  4.97929767516752 -4.50555051005101
 1 -8.09858970797080  3.31774113291329 -4.97332725752575
 1 -8.19999758935894 -1.12923346624662 -4.83840483878388
 1 -8.22330331333133 -2.67807121222122 -4.20038267526753
 1 -9.41017109660966 -1.37465428882888 -3.67797470417042
 1 -4.22456981438144 -4.04398922552255 -1.28274156105611
 1  2.28371950495050 -6.11615955895590  1.11369732663266
 1  2.16347709110911 -5.25785276137614 -0.39910335993599
 1  3.78106022832283 -4.20548983078308  2.04073908150815
 1  2.66670165686569 -3.23791941304130 -1.38342088308831
 1  3.89031364466447 -2.19267282658266 -1.55109758025803
 1  4.24398657265727 -3.93952768196820 -1.91451037693769
 1  4.72384242514251 -1.39816624062406  0.64235611911191
 1  5.39465799309931 -2.73436506890689  1.94600948124813
 1  6.75195272197220 -3.88380157225723  0.11168905290529
 1  6.36179634003400 -2.39390699969997 -1.08193878937894
 1  7.19188812011201 -0.71739506460646  0.47947519301930
 1  7.53296539943994 -2.02585916901690  1.69187357265727
 1  8.73016712601260 -1.42469074427443 -1.29430276837684
 1  8.65025954465446 -4.18099687108711 -0.27162095449545
 1  10.50341968276828 -3.54880908300830 -0.44677479097910
 1  9.73698275967597 -3.60801189268927  1.17003744644464
 1  9.53233238383839  0.13565929212921  0.12988835263526
 1  10.00621071857186 -0.96822335623562  1.43408294829483
 1  11.89483462476248 -1.73404343624362 -0.38366273947395
 1  10.94410049674967 -0.77189009390939 -1.38204953855386
 1  11.75928696219622  1.32937736693669  0.00514095889589
 1  12.22016683998400  0.40573176457646  1.24431271147115
 1  13.46265306600660  0.55981041334133 -1.59592183088309
 1  14.70660999929993 -0.79355756845685  0.58586426642664
 1  13.98549412041204 -1.64643365966597 -0.63063938543854
 1  15.37888887728773 -0.50777397559756 -1.10307720022002
 1  13.32982117631763  2.61279589868987 -0.31195298299830
 1  14.57438413871387  1.78436872607261  0.88261547544754
 1  16.40365202100210  1.51106971967197 -0.77889438013801
 1  15.09043462686269  2.26336024882488 -2.04741612131213
 1  15.18726013061306  4.42950832883288 -0.74222622072207
 1  16.05426819691969  3.53896053745374  0.49494939533953
 1  17.85723940534053  3.14344583578358 -1.16965604520452
 1  16.18805952635264  4.96172270117012 -2.77132949274927
 1  18.03041896539654  4.79796931023102 -3.32950755585559
 1  16.43914411461146  3.30043111311131 -3.20406844144414
 1  17.92581862906291  5.24869608710871  0.45588725292529
 1  18.41647917021702  5.82883703590359 -1.19095601000100
 1  16.71647319821982  6.16408591169117 -0.89428348964896
 1 -5.01846714811481 -7.68145757885789  0.09205566786679
 1 -6.31743617391739 -6.79517660426043  0.92485599309931
 1 -4.71064923352335 -6.81148272387239  1.54726918351835
 8 -7.60458805040504  6.90173667446745 -0.36178396239624
 1 -9.04773307040704  6.21589723462346 -1.51633731653165

