%nproc=4
%Mem=2GB
# td=(NStates=1) iop(3/107=0140000000,3/108=0140000000) iop(3/107=0140000000,3/108=0140000000) CAM-B3LYP/6-31G(d,p) 

TD

0 1
12 -6.74227679977998  0.55600474457446  0.07996561606161
 6 -4.47499460596060 -1.87785620742074  0.34281455845585
 6 -4.41485330073007  2.86490812391239  1.06762964456446
 6 -9.21838454315432  2.92001602570257 -0.17869737143714
 6 -9.32530062766277 -1.73774680428043 -0.80844090279028
 7 -4.82214728662866  0.44236363406341  0.63556258835884
 6 -3.98606587218722 -0.71168087488749  0.71063161856186
 6 -2.45526894549455 -0.41617337653765  0.93648571087109
 6 -2.49456942274227  1.10893104190419  1.30438260076008
 6 -4.00724698759876  1.53403348854885  1.05508028272827
 6 -2.23439972567257  1.46762855875588  2.66002056485649
 6 -1.50320906930693 -0.69918248164816 -0.10824949864986
 6 -0.15011312961296 -1.08082978957896  0.45676474997500
 6  0.83366444564456 -1.27005424232423 -0.69756793059306
 8  0.92045211331133 -0.62433504600460 -1.67299829002900
 8  1.98748903550355 -2.05023532213221 -0.27830275277528
 7 -6.84318606080608  2.56570694069407  0.47086083398340
 6 -5.65579614051405  3.28146678987899  0.65603189938994
 6 -6.08077229242924  4.75743542834283  0.76650151875187
 6 -7.35947666106611  4.87762385288529  0.34807139043904
 6 -7.86070777467747  3.47173598199820  0.20346517791779
 6 -5.23171809210921  5.89944737523752  0.97730539853985
 6 -8.39560112141214  6.04902182228223  0.14857438113811
 8 -7.86372028822882  7.16125774237424  0.41184904170417
 7 -8.87264081758176  0.58639949914991 -0.20074272337234
 6 -9.71013468586859  1.76604133943394 -0.35121617391739
 6 -10.97680431073107  1.45257512861286 -0.79773555475548
 6 -11.10801515901590  0.04308521292129 -0.92243309880988
 6 -9.61389305260526 -0.41056922012201 -0.56615869256926
 6 -12.10209698499850  2.37883407650765 -0.81734638543854
 6 -12.40144326482648 -0.93783734603460 -1.16103423712371
 6 -12.42039890199020 -1.14304646984698 -2.67194998969897
 7 -6.86892337523752 -1.38104066536654 -0.17730037453745
 6 -8.03871653325333 -2.34232422912291 -0.64117731573157
 6 -7.41639922502250 -3.68063538593859 -0.47433844394439
 6 -6.04814043524352 -3.51371053195320 -0.13998225882588
 6 -5.89732602130213 -2.08245706020602  0.06672285658566
 6 -8.22804132763276 -4.83998137593759 -0.74131694759476
 6 -4.94671087558756 -4.32962876097610 -0.01374334863486
 8 -4.75989773847385 -5.43262380068007 -0.19854934833483
 6 -3.84541826722672 -3.28115867506751  0.35653030023002
 6 -3.23841735263526 -3.36350252575257  1.79041875487549
 8 -3.77702294239424 -3.72416915171517  2.67464613441344
 8 -1.86048772367237 -3.26728303360336  1.75064500370037
 6 -1.22740126222622 -3.64939002910291  2.97706213141314
 6  3.08830072287229 -2.08474365126513 -1.27167841194119
 6  4.02094586198620 -0.88705570667067 -0.92621815411541
 6  5.19318007340734 -1.06436330773077 -1.80852705430543
 6  5.45564954875488 -2.04688782348235 -3.11260824302430
 6  6.44723854845485 -0.03015066796680 -1.61696825532553
 6  7.56288498249825 -0.74353013511351 -0.74374111141114
 6  8.63709626992699  0.29835547014701 -0.59532801330133
 6  9.95991908130813 -0.43796071637164  0.15168686298630
 6  9.82829034533453 -0.77027584228423  1.47941231003100
 6  11.14182651265127  0.53960881508151 -0.09924508610861
 6  12.34877014751475 -0.11227992079208  0.05504381558156
 6  13.42983452605261  1.03392066676668  0.12459535793579
 6  14.94657099229923  0.17011028912891  0.42530719281928
 6  14.84043903200320 -0.31539381988199  1.87551747574757
 6  16.07422705110511  1.27076197819782  0.09410261556156
 6  17.42804228232823  0.64921014541454  0.11925505160516
 6  18.44288383578358  1.57352454365437 -0.29386953375338
 6  19.74413661476148  0.77136563136314 -0.54775485918592
 6  19.77781758305831  0.18171360166017 -1.77580337153715
 6  20.84702187108711  1.68023944194419 -0.14127922382238
 1 -3.71776241454145  3.61206245724572  1.33584298599860
 1 -10.03115709820982  3.65365445054505 -0.48817245114511
 1 -10.13237572917292 -2.21507190649065 -1.03458628452845
 1 -2.15867838463846 -0.76998461626163  1.97655770407041
 1 -1.79736907550755  1.71492196839684  0.89187564096410
 1 -1.08218960266027  1.35873418781878  3.24720543164316
 1 -2.62414058795880  2.52846142254225  2.76620273807381
 1 -2.76813914641464  0.98593647894789  3.34671054015402
 1 -1.65396441674167 -1.35009628262826 -0.99732751955196
 1 -1.04068923792379  0.18236676377638 -0.78605839663966
 1  0.41977997629763 -0.39562099539954  1.06440230543054
 1 -0.24153787358736 -1.92857919171917  0.91635186728673
 1 -4.46279080948095  5.61483931183118  0.07485244294430
 1 -5.77280756135614  6.81137381328133  1.10497740384038
 1 -4.44849587778778  5.55987494849485  2.04392216451645
 1 -9.36738975307531  6.18613372257226 -0.27999437523752
 1 -12.16118567216722 -2.34899576707671 -0.69236366356636
 1 -13.45364157915791 -0.18048164836484 -0.76063369976998
 1 -13.21502932603260 -1.97193930933093 -3.01493861096110
 1 -12.50752771657166 -0.21714429292929 -3.11930409990999
 1 -11.38655547994800 -1.47669098609861 -3.18658526592659
 1 -8.99944912821282 -4.36099265486549 -1.54633686168617
 1 -7.48785400000000 -5.46663667626763 -1.12728238013801
 1 -9.00255753575358 -5.45249721092109 -0.27390278077808
 1 -3.10207978937894 -3.23442716761676 -0.37223553035304
 1  3.38398001340134 -3.17471474527453 -1.04231994909491
 1  2.77257154595460 -1.85117103210321 -2.09730996629663
 1  3.84051137883788 -0.40673342174217 -0.08536493489349
 1  4.61553461046105 -1.80197366986699 -3.72280239523952
 1  6.39702328072807 -1.66225490089009 -3.75999722362236
 1  5.45772960036004 -3.17451006530653 -2.56896107990799
 1  6.45559598149815  0.33921925932593 -2.53899651685169
 1  5.75076018541854  1.15612115991599 -0.91100536393639
 1  7.25322650155015 -1.15384358145815  0.29478119971997
 1  8.16032143054305 -1.97400619091909 -1.20353982988299
 1  9.20057218861886  0.97567816261626 -1.18619140444044
 1  8.45315381348135  0.87937312551255  0.25900160856086
 1  10.33687613471347 -1.44499194289429 -0.62180933853385
 1  9.16353859815982 -1.64180299599960  1.34357271807181
 1  10.73832990239024 -1.27584146534653  1.91032292369237
 1  9.15539875147515  0.04410318791879  2.28350965606561
 1  10.88856249404940  1.03189594949495 -1.04196136773677
 1  11.19438918551855  1.22940181578158  0.72882676297630
 1  12.56017355955595 -0.81503394289429  1.16943062636264
 1  12.60199235323532 -0.89318753935394 -0.88705170267027
 1  13.55380025002500  1.99878942394239 -0.73386229082908
 1  13.20927297209721  1.43375762706271  0.92956874627463
 1  14.71414284008401 -0.51199871587159 -0.49022721392139
 1  14.34811471137114  0.48943933943394  2.68251102410241
 1  14.40819809330933 -1.28598627052705  2.07650514861486
 1  15.78433546664666 -0.63535711881188  2.54060053775378
 1  15.79793092799280  1.73542353575357 -0.70208018271827
 1  16.38902293489349  1.96220575607561  0.84498282148215
 1  17.39913122822282  0.11215438603860  1.26074626132613
 1  17.45136266046605 -0.21126295709571 -0.51502287968797
 1  18.43702870997100  2.04560110791079 -1.03307629592959
 1  18.63142313841384  2.49903381028103  0.46539320982098
 1  19.90786334753475 -0.04574172797280  0.41297464826483
 1  19.78574689268927  0.94898994859486 -2.48662078727873
 1  20.76168045804580 -0.12875467726773 -1.73717785118512
 1  18.95930865786579 -0.27061477987799 -2.06718479317932
 1  20.80641742034203  2.23066264536454  0.76814756835684
 1  21.81907964826483  1.07534411711171 -0.02942565756576
 1  20.88550520342034  2.18601608880888 -0.88760355665567
 1 -0.30461608670867 -3.46370912031203  2.54083243124312
 1 -1.47938761976198 -4.89695696939694  3.10901153775378
 1 -1.60687470077008 -2.83395187228723  3.83951810501050
 8 -11.77582595689569  3.56568136733673 -0.75526734043404
 1 -13.08702921442144  2.20893213331333 -1.12453305830583

