%nproc=4
%Mem=4GB
# td=(NStates=1) iop(3/107=0140000000,3/108=0140000000) iop(3/107=0140000000,3/108=0140000000) CAM-B3LYP/6-31G(d,p) 

TD

0 1
12 -5.52040354695469  1.29646452075208  0.12004060926093
 6 -5.07359774697470 -2.17379584288429 -0.33843070987099
 6 -3.40885967506751  1.14432471727173  2.83176855015502
 6 -6.19085788148815  4.57751101530153  0.74601481028103
 6 -7.90937670477048  1.17639849054905 -2.45627330083008
 7 -4.34980923422342 -0.37941613341334  1.03079441824182
 6 -4.20737426492649 -1.68074177577758  0.61256360596060
 6 -3.21265438993899 -2.37548085088509  1.44479884358436
 6 -2.93775694669467 -1.25949884078408  2.50532708880888
 6 -3.60989841724172 -0.06075870357036  2.07097168236824
 6 -3.35015805520552 -1.65506894829483  3.94438713811381
 6 -1.95059025222522 -2.67817522682268  0.54741004650465
 6 -1.06264790829083 -3.62216979757976  1.32276586458646
 6  0.22635773627363 -3.99294313501350  0.62951114581458
 8  0.45846591089109 -3.63814112771277 -0.60183641784178
 8  1.15064190989099 -4.73866348364836  1.27472207950795
 7 -4.91814263056306  2.67867724462446  1.48227845954595
 6 -4.06462855265527  2.35856327802780  2.53845444874487
 6 -3.82135163886389  3.70963946614661  3.22748330453045
 6 -4.55792634533453  4.67645917421742  2.56622589388939
 6 -5.25955205940594  4.01919001420142  1.55013110541054
 6 -2.97880324342434  3.74302167796780  4.41837602700270
 6 -4.71939847044704  6.02401982248225  2.93226273107311
 8 -4.11705175317532  6.46497438543854  3.97317121702170
 7 -6.80913471337134  2.65079497529753 -0.79588124442444
 6 -6.88466118091809  3.97870748794880 -0.40108179687969
 6 -7.87596278267827  4.59418614341434 -1.17847195669567
 6 -8.46058551185119  3.59571650155016 -2.06409535393539
 6 -7.76426531703170  2.43685969476948 -1.80430637713771
 6 -8.25534852575258  5.95021493089309 -1.12884239303930
 6 -9.48170253355336  3.87487788598860 -3.13913854665467
 6 -8.95417687138714  3.91936008220822 -4.56785318931893
 7 -6.39218763776378 -0.09002402010201 -1.08188328032803
 6 -7.19284881448145 -0.04410047864786 -2.23323753445345
 6 -7.55346285348535 -1.24432613621362 -2.82344486708671
 6 -6.72798234703470 -2.21339091089109 -2.02172833853385
 6 -5.90962937833783 -1.39725329042904 -1.13337946834683
 6 -8.55546100390039 -1.58132825882588 -3.81834873107311
 6 -6.30589425652565 -3.64788037193719 -1.90020357545755
 8 -6.79702409790979 -4.54559225762576 -2.46632289738974
 6 -5.16321488358836 -3.56501455405541 -0.88287060686069
 6 -5.29995747314731 -4.62406784788479  0.14063773557356
 8 -5.78739451105110 -4.43352236033603  1.25873223662366
 8 -5.04444414261426 -5.83146434283428 -0.38180132473247
 6 -5.23784134833483 -6.97976983028303  0.53516534633463
 6  2.43063403660366 -5.10664178437844  0.52251620602060
 6  3.49191372637264 -4.10006016691669  0.97160506030603
 6  4.10147953815382 -3.24197706780678  0.19487312231223
 6  3.74251859075908 -3.12634757605761 -1.27209671417142
 6  5.19071549734973 -2.28560360796080  0.74898869766977
 6  6.49834470577058 -2.59426235143514  0.05885735313531
 6  7.63097842144214 -1.74052340784078  0.65842153265327
 6  8.99693051435144 -1.95654048764876  0.05038725622562
 6  9.54471085278528 -3.24501514191419  0.20319686198620
 6  9.96947752685269 -0.81533177057706  0.39196171167117
 6  11.33594089648965 -0.80817042394239 -0.30585935213521
 6  12.32258994759476  0.26885151265126  0.21223807140714
 6  13.62414487028703  0.46044091399140 -0.49814457765777
 6  14.52503080208021 -0.86869627222722 -0.36057020792079
 6  14.32626856645665  1.77321349294929 -0.14296355115512
 6  15.43388757915791  2.14377240544054 -1.02262725772577
 6  15.91949453385338  3.55002975577558 -0.72977359055906
 6  17.32600784988499  3.87678552015202 -1.36952088728873
 6  17.20592318201820  3.94087897959796 -2.88912113631363
 6  17.98357776387639  5.11660692599260 -0.77857731663166
 1 -2.76156187898790  1.05752002740274  3.63606407480748
 1 -6.65244322312231  5.57028240864086  1.03961295299530
 1 -8.52669307650765  1.17341764466447 -3.25601107990799
 1 -3.46738780358036 -3.39568488388839  1.82080014081408
 1 -1.72206933083308 -1.29365702730273  2.44571584768477
 1 -2.68020779987999 -2.44083724492449  4.26911045504550
 1 -3.50179097179718 -0.69079898429843  4.51478350815082
 1 -4.34107661936194 -2.00321940284028  3.76312026252625
 1 -2.25402071577158 -3.15165468276828 -0.40576119991999
 1 -1.55965379777978 -1.70148926522652  0.28029615121512
 1 -0.47879331283128 -3.09671096669667  2.27826204490449
 1 -1.65947066866687 -4.50491762296230  1.73904570257026
 1 -2.01665177897790  3.65106463086309  4.39691560126013
 1 -2.85836682678268  4.86866407240724  4.65698195589559
 1 -3.33293628862886  3.14548554605461  5.25643064906491
 1 -5.12524558845884  6.77626182058206  1.96969229062906
 1 -10.07647678117812  3.19572022912291 -3.22533578527853
 1 -10.39154995289529  4.66068991309131 -2.82069235993599
 1 -9.77878767856786  4.25502391639164 -5.32781798409841
 1 -8.24594410381038  4.75469521492149 -4.68400835583558
 1 -8.46366621562156  2.89373873267327 -4.88864878967897
 1 -8.44220180978098 -0.84076461936194 -4.64160515881588
 1 -8.13111409440944 -2.62687609270927 -4.11446408340834
 1 -9.66019609910991 -1.66885370877088 -3.51647855455546
 1 -4.27770512791279 -3.60696552315232 -1.50393368026803
 1  2.62402353535354 -6.19416735973597  1.02480843774377
 1  2.22428317171717 -4.99436641274127 -0.54876832643264
 1  3.82559468176818 -4.29659894169417  1.86242124972497
 1  2.78694368106811 -3.50477609870987 -1.38719126012601
 1  3.99857447074708 -2.07124068336834 -1.64471694219422
 1  4.35163733773377 -3.63278700790079 -2.07073599949995
 1  4.86924696559656 -1.23900032403240  0.42381426492649
 1  5.19579810711071 -2.50398203060306  1.81466634693469
 1  6.68486601330133 -3.43655684778478  0.10282816681668
 1  6.46129629002900 -2.36969457845785 -0.96858745424542
 1  7.33446237753775 -0.67573089818982  0.35210245574557
 1  7.61712381528153 -1.87399398249825  1.75504989028903
 1  8.76392050135014 -1.62184045924592 -0.97747108520852
 1  8.91140565926593 -4.21579035043504 -0.11510530293029
 1  10.46423576437644 -3.25182938503850 -0.35229534303430
 1  9.62907196859686 -3.60781187268727  1.22225266796680
 1  9.53557270787079  0.29853557975798  0.21430679447945
 1  10.02823292079208 -0.83518005190519  1.46278581858186
 1  11.91578671997200 -1.78466849874987 -0.11394576777678
 1  11.36590267696770 -0.93270617551755 -1.33845517911791
 1  11.76284731823182  1.25236966616662  0.25421586638664
 1  12.55684050735073  0.18442963436344  1.32016029622962
 1  13.31351815251525  0.53908834113411 -1.60698293699370
 1  14.74418375667567 -1.01944015671567  0.63509918991899
 1  14.14683025402540 -1.83013202950295 -0.85785210671067
 1  15.45075606400640 -0.69286248444844 -0.77883477597760
 1  13.47031522572257  2.60178479757976 -0.13370515821582
 1  14.58658535883588  1.67829811901190  0.87664487838784
 1  16.27898955475548  1.52379099179918 -0.69756624732473
 1  14.90605618901890  1.98203211601160 -2.07160854055406
 1  15.11597300190019  4.30345572357236 -0.91947394549455
 1  16.04656742684269  3.53382002340234  0.29294919531953
 1  17.78607228862886  2.85500699189919 -1.21857093669367
 1  16.44277499789979  4.55143167206721 -3.37812017181718
 1  18.32033795729573  4.04244375767577 -3.25548015311531
 1  16.82241244144415  2.96902797279728 -3.31851988658866
 1  18.16219226642664  5.04150536803680  0.24014567876788
 1  18.93298082038204  5.47617176937694 -1.24921183558356
 1  17.23744529542954  5.92920242334233 -0.83002706400640
 1 -4.98448374977498 -7.86731616471647  0.03872033433343
 1 -6.38531296159616 -6.94685177177718  1.04382789028903
 1 -4.64555272387239 -6.73374495009501  1.43030748734873
 8 -7.80938853045305  6.88782528332833 -0.37890567456746
 1 -9.06404470157016  6.32687833273327 -1.89070475327533

