%nproc=4
%Mem=2GB
# td=(NStates=1) iop(3/107=0140000000,3/108=0140000000) iop(3/107=0140000000,3/108=0140000000) CAM-B3LYP/6-31G(d,p) 

TD

0 1
12 -6.78350092219222  0.52575171927193  0.03776139563956
 6 -4.47406451295129 -2.01864028582858  0.34273455045505
 6 -4.35304712011201  2.89026065916592  0.77551043264326
 6 -9.12833553825383  3.07247127122712 -0.09473897559756
 6 -9.40218831643164 -1.80195322492249 -0.53222328102810
 7 -4.69354442634263  0.40705010271027  0.42485151725172
 6 -3.96563382898290 -0.87781748854885  0.42251280668067
 6 -2.47470088868887 -0.58092985218522  0.89434149644965
 6 -2.39783974977498  0.95980612941294  0.96362852535254
 6 -3.97982424532453  1.38810889608961  0.85983075777578
 6 -1.80313659935994  1.21191298719872  2.47762232503250
 6 -1.53419216761676 -0.85022758615862 -0.34310298399840
 6 -0.10294841314131 -1.01495320192019  0.04441351485148
 6  0.77597867706771 -1.31021825872587 -1.02366053985399
 8  0.68865893399340 -0.85188780128013 -2.10653164336434
 8  1.95266555315532 -1.87177747634763 -0.41181610411041
 7 -6.63636537873787  2.63978434843484  0.06877062496250
 6 -5.54119468036804  3.34231287448745  0.48126442264226
 6 -5.85656987218722  4.87050673547355  0.75779064766477
 6 -7.25855656905691  4.95141123162316  0.45817240054005
 6 -7.79063076697670  3.58456726512651  0.10628545994599
 6 -4.79420434073407  5.89427685818582  0.85902357035704
 6 -8.07211877317732  6.14156107620762  0.10436996069607
 8 -7.45737965416542  7.31013262986299  0.24778263506351
 7 -8.89201275477548  0.68420928012801 -0.08461111021102
 6 -9.77760143254325  1.75019975527553 -0.25641669396940
 6 -11.06028265856586  1.51451132223222 -0.55673145434543
 6 -11.16335069256926  0.05560646504650 -0.78337919341934
 6 -9.90406206950695 -0.51791995519552 -0.60006208290829
 6 -12.04704147944794  2.49795598869887 -0.88243289408941
 6 -12.42340546104611 -0.61722528482848 -1.08227636133613
 6 -12.45846270837084 -0.94103626882688 -2.65334812951295
 7 -6.88932541544154 -1.46745930723072 -0.10644328882888
 6 -8.12353501510151 -2.26035603230323 -0.32095529352935
 6 -7.67357494259426 -3.70983830623062 -0.22588359845985
 6 -6.37163278447845 -3.72598175907591 -0.05209346994699
 6 -5.97722401110111 -2.22532134663466  0.14482066636664
 6 -8.75755427892789 -4.69553693149315 -0.42972578847885
 6 -5.14513071757176 -4.56187198529853  0.07166519221922
 8 -5.09382113081308 -5.77260779907991 -0.00134962836284
 6 -3.98238196359636 -3.41773233243324  0.33794844204420
 6 -3.27516102700270 -3.72447862336234  1.70706041904190
 8 -3.91388662876288 -3.85048178297830  2.82798146794679
 8 -1.83114478937894 -3.57119342464246  1.69719965916592
 6 -1.22758128022802 -3.86004109420942  2.77916234143414
 6  2.89813170597060 -2.11291646854685 -1.44957620172017
 6  4.01305507290729 -1.18072507360736 -0.97014254655466
 6  5.13550430583058 -0.93469034043404 -1.71050725232523
 6  5.35506949074907 -1.59082221692169 -3.03637061926193
 6  6.32848667326733 -0.02094974787479 -1.22307886638664
 6  7.50122881688169 -0.73798958105811 -0.48929566686669
 6  8.61569412971297  0.46431206580658 -0.26252473297330
 6  9.93708679807981 -0.31462838313831  0.24535622992299
 6  9.84347186348635 -1.05581439613961  1.31989635843584
 6  11.12952528252825  0.69176403060306  0.27908274667467
 6  12.62995826632663  0.01059236643664  0.61992030323032
 6  13.65428697129713  1.04181145584558  0.52106500490049
 6  14.92631896709671  0.39949322742274  0.87149181128113
 6  15.10406539463946  0.06331405090509  2.07199712371237
 6  16.21122075047505  1.41668657065707  0.36504971027103
 6  17.51050052815281  0.70070529492949  0.16324945104510
 6  18.46719626702670  1.66951414261426 -0.42898304510451
 6  19.91019322042204  0.86181467626763 -0.49495957965797
 6  19.88637843914391 -0.19581415111511 -1.73116890809081
 6  20.89427659655966  2.00599201720172 -0.74521961786179
 1 -3.41953259155916  3.55248649964996  1.17653705540554
 1 -10.00069405190519  3.87026611171117 -0.16806043994399
 1 -10.21307379897990 -2.63257365666567 -0.52796562246225
 1 -2.22434495129513 -1.13247086488649  1.85495554385439
 1 -1.82894223282328  1.46417689388939  0.24867132053205
 1 -0.57892927662766  0.75448376277628  2.43953466456646
 1 -1.73229140304030  2.29517809420942  2.93369948774878
 1 -2.39792212471247  0.66367425272527  3.37411328042804
 1 -1.96322534283428 -1.62375364836484 -1.12233001980198
 1 -1.65272044104410 -0.01241271417142 -1.15714550535053
 1 -0.02258426012601 -0.15942737603760  0.86444230943094
 1 -0.17332105190519 -1.87550388418842  0.89287952005201
 1 -4.13473800420042  5.60606843474347 -0.11226626892689
 1 -5.08139842044204  7.07921059695970  0.91900880698070
 1 -4.37316834503450  5.85668462946295  1.93495126742674
 1 -9.08262127622762  6.05194030323032 -0.42759913571357
 1 -12.55682523612361 -1.52078294579458 -0.66805123232323
 1 -12.96912312731273  0.07460386018602 -0.76094373077308
 1 -13.32773059615962 -1.26369848524852 -2.67598471557156
 1 -11.84583154695470  0.07180460196020 -3.05374754425443
 1 -11.77297412181218 -1.70542385938594 -2.93749035643564
 1 -8.62585176847685 -4.73017957355736 -1.65067729572957
 1 -8.41093630823082 -5.79729974257426 -0.30289994189419
 1 -9.65208248824883 -4.42311427262726 -0.10092548304830
 1 -3.09025860726073 -3.34752847774777 -0.43343164996500
 1  2.90334194959496 -3.25220249404940 -1.63867958505851
 1  2.73277756655666 -1.65832174717472 -2.43664389968997
 1  3.70451777947795 -0.56977972637264 -0.05945234363436
 1  4.63618667566757 -0.49986345884588 -3.94870498549855
 1  6.63078665706571 -1.41814048944894 -3.34310553445345
 1  4.88702252965297 -2.74649726402640 -3.18129231303130
 1  6.60861128302830  0.54281961936194 -2.11699431663166
 1  5.81585669506951  0.53527907570757 -0.46262052545254
 1  7.14004518341834 -1.14385258235824  0.49948166976698
 1  8.10100549894990 -1.44394318461846 -1.49244872077208
 1  8.82337446884688  1.15503609840984 -1.09047183248325
 1  8.13653215131513  0.94104929312931  0.49949565796580
 1  10.11144359145914 -0.90276772047205 -0.53422057965797
 1  8.96061830613061 -1.58371718741874  0.97928628942894
 1  10.61652772217222 -1.66491037223722  1.65703759515952
 1  10.02643585518552 -0.51526274867487  1.87788909400940
 1  11.37009064686469  1.28894165406541 -0.92271944354435
 1  10.84238398499850  1.60356923252325  0.77065094539454
 1  12.57701524372437 -0.45551799129913  1.50543422672267
 1  12.67007916191619 -0.85489370997100 -0.06934993249325
 1  13.60376524652465  1.56039558455846 -0.59922882748275
 1  13.55946799159916  2.09577382868287  1.46010179957996
 1  15.09746117191719 -0.25902341834184  0.08712052085208
 1  14.71623152305231  0.96956735223522  2.78276104910491
 1  14.18991626512651 -0.52415008690869  2.42399989808981
 1  16.17058409150915 -0.52025560866087  2.63598007570757
 1  15.84313544844484  1.86428642204220 -0.51582155685569
 1  16.59953398599860  2.36355589108911  0.84902322552255
 1  18.16151746684669  0.41771494209421  1.61893207990799
 1  17.44731225542554 -0.36139797059706 -0.62629400680068
 1  17.97376238333834  2.02892944074407 -1.57504049234924
 1  18.70789078517852  2.48501240814081  0.31341801230123
 1  20.05929849104911  0.33768661486149  0.46186953775378
 1  19.93517183518352  0.41827687728773 -2.62586471167117
 1  20.74543883388339 -1.04259606140614 -1.85910004340434
 1  18.82696542354235 -0.79455717411741 -1.87958603330333
 1  21.32400917951795  2.85424500360036  0.06888764236424
 1  21.85389312961296  1.89457604030403 -1.19338205320532
 1  20.57268392129213  3.04686217341734 -1.46766156245625
 1  0.17059143404340 -3.58340108950895  2.70557890589059
 1 -1.47514719571957 -5.11078835253525  2.55533617021702
 1 -2.03296731003100 -2.96820529762976  3.83710786398640
 8 -12.01684005830583  3.60924572377238 -0.86138795249525
 1 -12.81967247874788  1.96562780288029 -1.07572817781778

