%nproc=4
%Mem=4GB
# td=(NStates=1) iop(3/107=0140000000,3/108=0140000000) iop(3/107=0140000000,3/108=0140000000) CAM-B3LYP/6-31G(d,p) 

TD

0 1
12 -5.61360286688669  1.25142001630163  0.18178678387839
 6 -4.92993338053805 -2.08546701000100 -0.43516038283828
 6 -3.40624941404140  1.26935722052205  2.75511088438844
 6 -6.21657045274527  4.50344360856086  0.69604981378138
 6 -8.12096786388639  1.03927477817782 -2.32561023452345
 7 -4.27102135543554 -0.23089128092809  1.03095443424342
 6 -4.15181870937094 -1.57308100970097  0.58526087568757
 6 -3.21810493499350 -2.32118542134213  1.48509287298730
 6 -2.97342051305130 -1.31786467736774  2.55696225232523
 6 -3.45024245164516  0.01610898319832  2.02467705290529
 6 -3.58167120652065 -1.54912835423542  3.92090478987899
 6 -1.94891008420842 -2.63944135343534  0.58617392289229
 6 -0.93626527002700 -3.41087866846685  1.40508409640964
 6  0.23376847734773 -3.81015485618562  0.47388558325833
 8  0.40175023932393 -3.47645495909591 -0.63280951515152
 8  1.04064090979098 -4.66031564886489  1.19010361766177
 7 -4.97974879117912  2.64749412631263  1.49015924762476
 6 -4.08867095689569  2.43636105780578  2.43397400070007
 6 -3.79051855555556  3.71114961716172  3.18271882808281
 6 -4.56751730443044  4.69797132543254  2.59410868216822
 6 -5.33593969816982  3.98636673187319  1.51337743004300
 6 -2.77898326142614  3.83754112991299  4.37841203060306
 6 -4.65648217881788  6.12029945044504  3.03247275207521
 8 -4.11152120012001  6.66827471547155  3.89316321622162
 7 -6.96956075597560  2.59853974977498 -0.74940659695970
 6 -7.06013872867287  3.91330094729473 -0.33929561826183
 6 -8.15688087448745  4.52020874567457 -1.22024613411341
 6 -8.58185763906391  3.48422535243524 -2.01470041444144
 6 -7.92102099259926  2.30787679647965 -1.75027097359736
 6 -8.55808879977998  5.88566847624763 -1.15312482128213
 6 -9.60932529582958  3.67861826002600 -2.93655828862886
 6 -9.04149560326033  3.94045219141914 -4.44938134213421
 7 -6.21443986298630 -0.11585660336034 -1.23198829082908
 6 -7.31260078967897 -0.07081314991499 -2.02272648334834
 6 -7.58148565576558 -1.33247495109511 -2.64920744334433
 6 -6.60993054185419 -2.15068464026403 -2.11760792649265
 6 -5.74433284868487 -1.38081164626463 -1.16656278667867
 6 -8.68182364016402 -1.69044917091709 -3.63677057325733
 6 -6.05677934503450 -3.51439702360236 -2.05098865396540
 8 -6.35057945344534 -4.53584128252825 -2.71443770887089
 6 -4.99620818291829 -3.60013806640664 -0.90405272507251
 6 -5.30977845524552 -4.57057249834984  0.12131580338034
 8 -5.84299007060706 -4.49716872497250  1.21929829322932
 8 -5.04531422962296 -5.78101929832983 -0.37035017961796
 6 -5.30215777997800 -6.83952580588059  0.53120495029503
 6  2.38753972717272 -5.05964708490849  0.52014596899690
 6  3.44641917691769 -4.09677983888389  0.85550345014501
 6  4.02611200140014 -3.18177104720472  0.10942457745775
 6  3.69948428732873 -3.04190913221322 -1.38031753625363
 6  5.12583900970097 -2.37171221882188  0.65980977977798
 6  6.55233010431043 -2.56504943014301  0.05648711611161
 6  7.67878320192019 -1.74637399289929  0.66847253775378
 6  9.07973879517952 -1.92649748334833 -0.07501528402840
 6  9.51366774847485 -3.30162080248025  0.04148069036904
 6  10.02245282438244 -0.84910514791479  0.41254376987699
 6  11.37996529892989 -0.84587419431943 -0.32840160636064
 6  12.35901358995899  0.24418904640464  0.35079192679268
 6  13.57534999079908  0.40856572647265 -0.41940670387039
 6  14.59543784278428 -0.84095349794980 -0.15169932083208
 6  14.31196713631363  1.71882805440544 -0.06439569436944
 6  15.52595678607861  2.07174520272027 -0.94788978397840
 6  16.19110169456946  3.45281003380338 -0.67549816301630
 6  17.46555180428043  3.73957179877988 -1.35557949314932
 6  17.35100769046905  3.83694858655866 -2.94682690689069
 6  18.14876428252825  5.00496576187619 -0.77837729662966
 1 -2.88389411221122  1.26023029842984  3.77036750515052
 1 -6.40667864666467  5.50295567596760  0.75568456015602
 1 -9.07604801200120  1.07947825072507 -3.05150062886289
 1 -3.80481154595460 -3.17770308570857  1.78305636643664
 1 -1.80139726362636 -1.22254991659166  2.89738101420142
 1 -3.04326410551055 -2.34593775497550  4.38864240824083
 1 -3.26804759745975 -0.70602050645065  4.58349037883788
 1 -4.60967347904791 -1.71459053995400  4.08076202670267
 1 -2.20453576727673 -3.12349186648665 -0.07594821862186
 1 -1.55272310471047 -1.64916403270327  0.40239836143614
 1 -0.48503393689369 -2.93336463206321  2.41038525722572
 1 -1.45255997759776 -4.46626375757576  1.90808260626063
 1 -1.95378549234924  3.50124964936494  3.93293920362036
 1 -2.87055804590459  4.79267647364737  4.54591084878488
 1 -2.95065806080608  3.28889988748875  5.20597560356036
 1 -5.62080514441444  6.73201739613961  2.55710103150315
 1 -10.33015214871487  2.84996565366537 -3.04751800350035
 1 -10.20773157105711  4.52531637573757 -2.89427971867187
 1 -9.80650044984499  4.00023843784378 -5.00211541384138
 1 -8.54412392179218  4.83046279167917 -4.39452940794079
 1 -8.24720456945695  3.25168452725273 -4.78808873367337
 1 -8.48573616321632 -1.45149569246925 -4.69123012131213
 1 -8.95970695369537 -2.99501290639064 -3.48448108510851
 1 -9.69722980248025 -1.33500032343234 -3.24260116681668
 1 -4.29191654905491 -3.76090091669167 -1.60078336523652
 1  2.56790792379238 -5.97244518751875  0.87637359425943
 1  2.18841958535854 -4.90616759285929 -0.66822027162716
 1  3.67385950825083 -4.26422570437044  2.02127713531353
 1  2.66110109680968 -3.48821444254426 -1.59822236323632
 1  3.55167978127813 -1.98459201850185 -1.85088755925593
 1  4.23776595059506 -3.54985871507151 -2.26079500540054
 1  4.65694573547355 -1.13067949194919  0.66377826132613
 1  5.32247077437744 -2.46574820722072  1.75284016431643
 1  6.66231375807581 -3.74144733683368  0.25575345934593
 1  6.66402656305630 -2.36231384038404 -1.18086868236824
 1  7.30308924022402 -0.68565189028903  0.51678892439244
 1  7.91282338523852 -2.23604018711871  1.61178556385639
 1  8.81353546284628 -1.63483175837584 -1.05714905300530
 1  8.81929644834483 -3.90286905830583 -0.62492628502850
 1  10.37608694949495 -3.48253245534554 -0.55645575907591
 1  9.70107916931693 -3.70052114361436  1.06658710141014
 1  9.35839499009901  0.03646937313731  0.29339470327033
 1  10.32193229072907 -1.13101963586359  1.44326386638664
 1  11.81856699799980 -1.97695772767277 -0.20448482168217
 1  11.16495258195820 -0.58135104000400 -1.37274860846085
 1  11.97158819231923  1.20845527472747  0.46062650745074
 1  12.54362918621862  0.12258344974497  1.37953623382338
 1  13.51222802350235  0.42578701100110 -1.61965420412041
 1  14.62609194749475 -1.07203541624162  0.99568524852485
 1  14.06222179317932 -1.89755877217722 -0.40572689418942
 1  15.46741773017302 -0.75605880408041 -0.69684657715772
 1  13.63086128032803  2.52510712981298 -0.40024181188119
 1  14.56908360866087  1.90979126832683  0.98490570447045
 1  16.40827248304830  1.42494110681068 -0.86134262496250
 1  15.24209979337934  2.07737164996500 -1.98494987468747
 1  15.30794219881988  4.42327770577058 -0.78666066416642
 1  16.26581935203521  3.33829047044704  0.44274417481748
 1  18.19390307170717  2.74102559375938 -1.24113319291929
 1  16.66840756115612  4.55056158505851 -3.29503186298630
 1  18.24562048554856  3.87269678297830 -3.56026063116312
 1  16.98615881608161  2.77461853185319 -3.22686072067207
 1  18.21319736693669  4.93255447294730  0.30317198139814
 1  19.06789431173117  5.24312846504650 -1.21439835423542
 1  17.64206575747575  5.85995549864986 -1.18416247754775
 1 -5.03280858225823 -7.81180061316132 -0.00420395809581
 1 -6.40439486978698 -6.74241132773277  0.57152065956596
 1 -4.81717988658866 -6.71513308890889  1.48569302590259
 8 -7.98254584618462  6.71041754255426 -0.38306609060906
 1 -9.38271656875687  6.31058670357036 -1.76976265906591

