%nproc=4
%Mem=2GB
# td=(NStates=1) iop(3/107=0140000000,3/108=0140000000) iop(3/107=0140000000,3/108=0140000000) CAM-B3LYP/6-31G(d,p) 

TD

0 1
12 -6.80103267536754  0.63208235233523  0.23546116561656
 6 -4.55523262976298 -1.88129655145515  0.50479075607561
 6 -4.12200401580158  2.89639127222722  0.80337321892189
 6 -8.90191289598960  3.07940196429643 -0.19989949164917
 6 -9.31585968356836 -1.78675170477048 -0.75237529622962
 7 -4.73259833173317  0.38297769546955  0.68447747984798
 6 -3.80986825242524 -0.77214692149215  0.67323787918792
 6 -2.47392081068107 -0.57996975617562  1.10653271557156
 6 -2.44121408720872  0.98994914371437  1.34603676617662
 6 -3.78515477837784  1.43768385358536  0.96022079677968
 6 -2.03270955665567  1.21151294719472  2.69510407320732
 6 -1.58612736113611 -1.17414997839784 -0.04667334103410
 6 -0.12297041534153 -1.36998870547055  0.45962503600360
 6  0.72597367656766 -1.36451368826883 -0.68184635843584
 8  0.55567563566357 -1.06429904240424 -1.83494448464847
 8  1.87689797639764 -2.11651194979498 -0.20549547204720
 7 -6.48876061826183  2.52669303930393  0.35186893479348
 6 -5.42954351525152  3.38383702690269  0.58075437163716
 6 -5.82477669286929  4.79732941774177  0.61375624422442
 6 -7.06025673907391  4.85122121262126  0.14577116041604
 6 -7.60485218911891  3.45482429082908  0.01681651305130
 6 -4.86919183948395  5.96790422092209  0.95387305530553
 6 -7.92447400870087  6.06678359845985  0.20404992869287
 8 -7.44808872507251  7.05116673327333  0.40000785758576
 7 -9.02045559905991  0.63335419461946 -0.26369901900190
 6 -9.68119179157916  1.82013674897490 -0.47586863916392
 6 -10.87933456375638  1.51962183328333 -0.92646842804280
 6 -10.99533389088909  0.13094399879988 -1.06460731623162
 6 -9.76477814111411 -0.32825098829883 -0.77484956165617
 6 -11.92137891319132  2.56067226032603 -1.14761941274127
 6 -12.08460158065806 -0.63230679297930 -1.57182531623162
 6 -11.96890375247525 -0.74561672687269 -2.97470026472647
 7 -6.96843332623262 -1.30067262856286 -0.13811645614561
 6 -8.02498516011601 -2.13322331903190 -0.49500269826983
 6 -7.53025061016102 -3.67704502690269 -0.52846385648565
 6 -6.20238585978598 -3.56256541744174 -0.05436369696970
 6 -5.89256554525453 -2.13435224972497  0.10445662996300
 6 -8.43285180868087 -4.72330970877088 -0.74116693259326
 6 -5.01894809930993 -4.36124192229223  0.31523954965497
 8 -4.82987473617362 -5.58076861516152  0.16489699629963
 6 -3.90116384178418 -3.33410396959696  0.50735538273827
 6 -3.18337184808481 -3.85814198969897  1.81404111711171
 8 -3.70079531963196 -3.88860559535954  2.90473914371437
 8 -1.99924159905991 -3.80678698399840  1.54529446864686
 6 -1.23994251635164 -4.20391548164816  2.74421884708471
 6  2.89289118191819 -2.24006918381838 -1.13693493759376
 6  3.95855962336234 -1.24947194829483 -0.88273380568057
 6  4.93102385778578 -0.77490436183618 -1.67291349294930
 6  4.86777076087609 -1.17999113381338 -2.99422640484048
 6  6.07406123072307  0.22896524362436 -1.20191675017502
 6  7.32695138913891 -0.75983176527653 -0.58766550385038
 6  8.42131469176918  0.16404203880388 -0.11759023952395
 6  9.66315940534053 -0.41783870417042  0.13140483478348
 6  9.71344886118612 -1.28269708440844  1.37567193599360
 6  10.72820515051505  0.71132598679868  0.38103294169417
 6  12.30420569106911  0.17706901410141  0.44785309650965
 6  13.51685322792279  1.23262053675367  0.37025992439244
 6  14.72651898709871  0.52631590969097  0.53511817391739
 6  14.82539752785279 -0.11716399689969  1.84821474547455
 6  16.01104073247325  1.55240014201420  0.34424763006301
 6  17.34711418951895  0.59578480288029 -0.01866874077408
 6  18.61113066046605  1.58934612581258 -0.21090123692369
 6  19.81995419651965  0.99125762056206 -0.82320240394039
 6  19.43661346264626  0.68380381068107 -2.36901269246925
 6  21.08644581348135  1.84864628262826 -0.53052814871487
 1 -3.73891452975298  3.49132038303830  1.36915631733173
 1 -9.76024000650065  4.04395348044805 -0.05915954985499
 1 -10.12674516611661 -2.76815721502150 -1.00607343324332
 1 -2.23084560136014 -1.16757437523752  2.00917096539654
 1 -1.80227956655666  1.45825630183018  0.68602505590559
 1 -1.11962334603460  0.40491880628063  3.08558927002700
 1 -1.48781695559556  2.27766634303430  3.05754187198720
 1 -2.80452278477848  0.92871075637564  3.61699756885689
 1 -2.11329034933493 -2.13027430043004 -0.63200098689869
 1 -1.61273644264426 -0.30923239613961 -1.03832362316232
 1  0.24597259555956 -0.15257669096910  0.73102896809681
 1  0.12633891409141 -1.97643397719772  1.58468870097010
 1 -4.05549007940794  5.73137096499650 -0.02799784208421
 1 -5.60631091169117  6.76530920682068  1.43256016211621
 1 -4.07996902510251  5.46697565856586  1.79700747304730
 1 -9.00504351845185  5.45571068026803 -0.02722909870987
 1 -11.99002855645565 -1.61829269676968 -1.09991441864186
 1 -12.81575779077908 -0.00913451365136 -1.07334497089709
 1 -13.10046786988699 -1.06973908930893 -3.01456857395740
 1 -11.94866182998300  0.02789021052105 -3.61746391589159
 1 -11.18477530193019 -1.20961427842784 -3.57124373177318
 1 -9.09032821612161 -4.64262081768177 -1.60909313731373
 1 -8.01935715031503 -5.57892790539054 -0.90796044794479
 1 -9.20384766476648 -4.62689465066507 -0.06388177867787
 1 -3.31004058545855 -3.58097182208221 -0.46295460226023
 1  3.25297691309131 -3.32760003380338 -0.97249296639664
 1  2.74937922672267 -2.12019793479348 -2.30155039033903
 1  3.92888021572157 -0.60746349474948  0.14310791239124
 1  4.01359441644165 -1.05202867536754 -3.48079819481948
 1  5.70793437183718 -1.05991466686669 -3.49500072397240
 1  4.44277810521052 -2.37488010231023 -3.24042822662266
 1  6.30587100900090  0.81290662806281 -2.28264088128813
 1  5.61715682508251  1.08226377417742 -0.46200046344634
 1  6.82355353425343 -1.67242543964396  0.36363808540854
 1  7.94522992139214 -1.80030882118212 -1.31292076797680
 1  8.57326945834583  0.84457505230523 -1.35702848814881
 1  8.09201769986999  0.85536072427243  0.48029373777378
 1  9.98837128422842 -1.02013945764576 -0.57593475107511
 1  8.59751199549955 -2.06946576227623  1.35372373317332
 1  10.57076314571457 -1.66991087228723  1.53828571997200
 1  9.79887309890989 -0.70011123352335  2.26296760186019
 1  10.74817845564556  1.35792855275527 -0.58953612521252
 1  10.12788253485349  1.44977385298530  1.23671755205520
 1  12.24925246744674 -0.61659409890989  1.00878456175618
 1  12.59064121812181 -0.80481870247025 -0.44039703720372
 1  13.66966183618362  1.49079862486249 -0.76206511111111
 1  13.41338338313831  2.38108235953595  0.89255504490449
 1  14.82296372217222 -0.36822433843384  0.01863367216722
 1  14.75648554845485  0.38531892739274  2.61909468246825
 1  14.19246652015201 -1.00074774667467  1.67813531163116
 1  15.73392042514251 -0.34523810691069  1.77178365606561
 1  15.70504163906391  2.18302829622962 -0.34130410511051
 1  16.08240227282728  1.97970750625063  1.24832315551555
 1  17.44925624072407 -0.16441327072707  0.76403659035904
 1  17.26188371257126 -0.06285811661166 -0.76720809820982
 1  18.12079708680868  2.26288283608361 -0.82353534183418
 1  18.95144514061407  2.20217412431243  0.98201487198720
 1  20.06325888708871  0.12925577177718 -0.19384603380338
 1  19.16842516051605  1.66661171077108 -2.81677380258026
 1  20.42585687568757  0.42415061326133 -3.09400353375337
 1  18.62030475747575 -0.03816153455346 -2.66335441014101
 1  21.66486326492649  1.93291287038704  0.64321507510751
 1  22.02542028232823  1.37133371607161 -1.32703541854185
 1  21.07707436033603  3.19526701390139 -0.79899469576958
 1  0.05742011691169 -3.99175192459246  2.48525687368737
 1 -1.38578825982598 -5.31808908260826  3.12581321792179
 1 -1.81257527082708 -3.27170564766477  3.37796194939494
 8 -11.73776215051505  3.67285208440844 -0.91194300800080
 1 -12.77254776627663  2.54399563966397 -1.82790339533953

