%nproc=4
%Mem=4GB
# td=(NStates=1) iop(3/107=0140000000,3/108=0140000000) iop(3/107=0140000000,3/108=0140000000) CAM-B3LYP/6-31G(d,p) 

TD

0 1
12 -5.54679618621862  1.19910478477848  0.23280188538854
 6 -5.05192557975798 -2.16138460176018 -0.41101796859686
 6 -3.27376616571657  1.11841212601260  2.78012338563856
 6 -6.08996779247925  4.49642290649065  0.61955216401640
 6 -7.89425519261926  1.18803965466547 -2.39546722022202
 7 -4.33098735203520 -0.34180237203720  0.98551989078908
 6 -4.26731025852585 -1.72283598519852  0.64746709630963
 6 -3.35095822032203 -2.40527383018302  1.48054241794179
 6 -2.98301147214721 -1.40915380628063  2.67854441054105
 6 -3.56297372477248 -0.13565619331933  2.05040962616262
 6 -3.51246428582858 -1.73604704610461  4.00694339373937
 6 -2.09006419961996 -2.81730914021402  0.63286859235924
 6 -1.13844548804880 -3.55728330893089  1.35684927292729
 6  0.15901100160016 -3.94491833253325  0.50607880258026
 8  0.38186825112511 -3.51544885848585 -0.55981221542154
 8  0.95486233193319 -4.73493311061106  1.23651825912591
 7 -4.78348916521652  2.58878825572557  1.45645587728773
 6 -3.90451254105411  2.41320874257426  2.41446204950495
 6 -3.61566106980698  3.52971147334733  3.15585614181418
 6 -4.40404095679568  4.49582111041104  2.67405667696770
 6 -5.18429453365336  3.88323641884188  1.52773886618662
 6 -2.65252061516152  3.62730010581058  4.38578276767677
 6 -4.58868539913991  5.92990041054105  2.94733423822382
 8 -3.93049309730973  6.36826471447145  3.88020192009201
 7 -6.86887068696870  2.69976987278728 -0.70272192849285
 6 -6.86595931073107  3.96783640084008 -0.40527221592159
 6 -7.78813399979998  4.62833955875588 -1.23608771827183
 6 -8.34072352565257  3.58029495939594 -2.07090603500350
 6 -7.66049493999400  2.42527853665367 -1.74663060956096
 6 -8.12148513941394  5.97197710711071 -1.19686919571957
 6 -9.39540390369037  3.79706010421042 -3.12813744654465
 6 -8.79692114581458  4.07246539273927 -4.61688809280928
 7 -6.30349876887689 -0.11490650835084 -1.16190128212821
 6 -7.27470700030003 -0.02153822242224 -2.11019523022302
 6 -7.56249375657566 -1.26829853345335 -2.76094861746175
 6 -6.74062361116112 -2.15210478227823 -2.05049121482148
 6 -5.94550296569657 -1.39661322642264 -1.21558768916892
 6 -8.44496995479548 -1.50504063006301 -3.94679157535754
 6 -6.30060372747275 -3.59652523642364 -2.05101865696570
 8 -6.52382677817782 -4.58299599799980 -2.63174944004400
 6 -5.21070963306331 -3.59637769036904 -0.83179549934993
 6 -5.43623110051005 -4.62032747384738  0.21322499429943
 8 -6.02089786138614 -4.43063207130713  1.26884324772477
 8 -5.04645434363436 -5.87710890729073 -0.26324946954695
 6 -5.39811737593759 -6.96990884418442  0.56677850765077
 6  2.27429840304030 -5.09139025922592  0.67514146854685
 6  3.25804033903390 -4.09616977787779  1.17190509030903
 6  3.92913230343034 -3.25786865696570  0.31042467746775
 6  3.62636697559756 -3.21029597089709 -1.18114761926193
 6  5.08028445424543 -2.32820786838684  0.78941274007401
 6  6.39715458675868 -2.55647857305731  0.01087255465547
 6  7.49546487008701 -1.62265162066207  0.66286197669767
 6  8.93080390169017 -1.77214204780478 -0.03637141964196
 6  9.50086646834684 -3.21052169256926  0.33354989728973
 6  9.91992257135714 -0.68623886128613  0.45027754325433
 6  11.21311861426143 -0.65205481238124 -0.41360012621262
 6  12.22613030163016  0.35779040654065  0.16695354295430
 6  13.49939239503950  0.59569443934393 -0.73527829102910
 6  14.36423472247225 -0.59630903350335 -0.50046419731973
 6  14.30658659825983  1.76033220482048 -0.20678993379338
 6  15.53621781218122  2.18953698189819 -1.07647264226423
 6  16.16714929932993  3.45861061386139 -0.55492610581058
 6  17.45922117121712  3.85920376197620 -1.36700063526353
 6  17.26189877957796  3.97026191789179 -2.80918314251425
 6  17.89127853395339  5.21650691599160 -0.84093355225523
 1 -2.76333205600560  1.08434270967097  3.62839330773077
 1 -6.09035701450145  5.59931531193119  1.01805079677968
 1 -8.63017342454245  1.03446374927493 -3.17893337213721
 1 -3.65958702350235 -3.36846216161616  2.06589465026503
 1 -1.92366949084909 -1.10210787238724  2.72406368246825
 1 -3.15766554565456 -2.72875603680368  4.13662720672067
 1 -3.11055184788479 -0.91371127552755  4.63993602340234
 1 -4.63589610131013 -1.73784286518652  3.97420137063706
 1 -2.09964527822782 -3.35482499979998 -0.32051267506751
 1 -1.51424925732573 -1.88679779607961  0.61631975357536
 1 -0.81480691419142 -3.12469376497650  2.39404362306231
 1 -1.47517223882388 -4.56018314951495  1.70804260226023
 1 -1.79376949074907  3.20002952735274  4.19306521622162
 1 -2.64831582168217  4.55253245924592  4.70588684638464
 1 -3.14186718171817  2.80186118361836  4.94680968696870
 1 -5.23404646854685  6.42083627802780  2.21167648904890
 1 -9.98217735123512  2.87260791789179 -2.91167441914191
 1 -9.97038783668367  4.77908175227523 -2.96128641934193
 1 -9.52502230203020  4.24748316231623 -5.39517471977198
 1 -8.18589809920992  4.97478722412241 -4.68434838983898
 1 -8.20919076807681  3.17870722952295 -4.71011093589359
 1 -7.94961255085509 -0.75424596749675 -4.82440343864386
 1 -8.23202418541854 -2.58418182328233 -4.32188482548255
 1 -9.40142022152215 -1.33067989138914 -3.86988389508951
 1 -4.24583194059406 -4.00614544114412 -1.47549083598360
 1  2.60853198619862 -6.13183112611261  1.19664562146215
 1  2.18340908430843 -5.43463043914391 -0.34188763836384
 1  3.69619174147415 -3.87573685548555  2.11656666426643
 1  2.45734072077208 -3.51268688978898 -1.28272081308131
 1  4.10862547584759 -2.24879843914391 -1.74131660216022
 1  4.24317649164916 -4.04087781698170 -1.56936586248625
 1  4.62268230913091 -1.27838426242624  0.62992487598760
 1  5.36853538083808 -2.35316694909491  1.89969484978498
 1  6.38315584228423 -3.84202739483948 -0.03738585458546
 1  6.31429158955896 -2.32777038603860 -1.00587118261826
 1  7.26166509780978 -0.52814613971397  0.55715296079608
 1  7.59410151305131 -1.75048163126313  1.59173355865587
 1  8.67593170247025 -1.68117639283928 -1.09535287338734
 1  8.73438795749575 -4.13075184658466  0.06782298989899
 1  10.28363770457046 -3.46909111121112 -0.21332144564456
 1  9.53725278667867 -3.26687777927793  1.30962140484048
 1  9.44889404000400  0.36801252745275  0.40820618441844
 1  10.27937803530353 -0.72610914481448  1.52924246424642
 1  11.69222436373637 -1.61617164906491 -0.41542591579158
 1  11.02407849454945 -0.42282518741874 -1.41126245984598
 1  11.72095312881288  1.34823925312531 -0.03566312151215
 1  12.61847667096710  0.33628481988199  1.26098437863786
 1  13.30337713841384  0.65331976427643 -1.80288252695269
 1  14.74866420472047 -0.71229944264426  0.42597827782778
 1  13.97113268426843 -1.68183720002000 -0.87934425592559
 1  15.33265425382538 -0.68639183738374 -1.29070596309631
 1  13.54176237043704  2.70989560866087 -0.15127691539154
 1  14.38612531283128  1.62800308950895  0.83246045994600
 1  16.19884153995400  1.46838545124512 -1.04223071377138
 1  14.99394497789779  2.13864777757776 -2.05381676137614
 1  15.51416282088209  4.38603398139814 -0.64006600470047
 1  16.55149791989199  3.62112875427543  0.43812371277128
 1  18.07455113651365  2.93602509370937 -0.95255433503350
 1  16.48108882928293  4.67408393729373 -3.26285864566457
 1  18.28623454695470  4.24658417171717 -3.32263686878688
 1  16.87781798199820  3.06125719571957 -3.30406844144414
 1  18.27529357655765  5.13572478997900  0.24248591279128
 1  18.65760328262826  5.59075322752275 -1.62339925432543
 1  17.20246179707971  6.00272977607761 -0.90100416171617
 1 -5.06787208860886 -7.74713414651465  0.16843330563056
 1 -6.39555398569857 -7.00729781638164  0.83093660116012
 1 -5.06130429902990 -6.81772334793479  1.72766722332233
 8 -7.63853144474448  6.86430293109311 -0.42385016901690
 1 -8.81438973607361  6.30522616751675 -2.03311899469947

