%nproc=4
%Mem=2GB
# td=(NStates=1) iop(3/107=0140000000,3/108=0140000000) iop(3/107=0140000000,3/108=0140000000) CAM-B3LYP/6-31G(d,p) 

TD

0 1
12 -6.76951952405241  0.65339448354835 -0.07171955245525
 6 -4.39238634513451 -2.09172759455946  0.64486476347635
 6 -4.17308912431243  2.76479811291129  1.09596247784778
 6 -8.83829653435344  3.29739376347635 -0.25187468916892
 6 -9.42791088868887 -1.68673170277028 -0.64053411211121
 7 -4.73458853075307  0.41709110681068  0.57215624772477
 6 -3.83057032263226 -0.80502020882088  0.82783333873387
 6 -2.50888430703070 -0.68201996119612  1.15204726702670
 6 -2.46976694249425  0.90478062686269  1.40348251075107
 6 -3.89740600350035  1.46287637283728  0.92046682138214
 6 -2.24993127882788  1.18811060696070  2.84515907870787
 6 -1.60712946134613 -1.01840440384038 -0.16597527122712
 6 -0.20277839613961 -1.29676138273827  0.26043511701170
 6  0.72633371257126 -1.39756699359936 -0.79285745954595
 8  0.62629269736974 -0.85148776127613 -1.93119410961096
 8  1.96798708530853 -2.07852815141514 -0.36072099459946
 7 -6.59433117531753  2.61207157715772  0.59529327722772
 6 -5.42663322422242  3.40914955815582  0.76375267146715
 6 -5.71583579877988  4.88738842364236  0.84222909150915
 6 -7.16241695509551  5.00862695319532  0.44914149744974
 6 -7.63903560746075  3.58116692509251  0.26471130253025
 6 -4.80747566786679  6.04073150365037  0.98053572157216
 6 -7.99880144144414  6.23009993009301  0.11779130283028
 8 -7.78485240144014  7.24997661426143  0.32126998379838
 7 -8.72576613011301  0.76388724792479 -0.30469311841184
 6 -9.50059373177318  1.90469520482048 -0.44346539883988
 6 -10.76826345664566  1.63395326642664 -0.91569735093509
 6 -10.95373973147315  0.17716862126213 -1.03458431393139
 6 -9.66808847214721 -0.37650581378138 -0.65385746244624
 6 -11.77165394069407  2.61003719681968 -1.20040469126913
 6 -12.13182630313031 -0.64617818011801 -1.28905703940394
 6 -12.32611947404741 -0.44637680288029 -2.83381617631763
 7 -6.93337982088209 -1.33663622492249 -0.14984762926293
 6 -8.10223288488849 -2.22887288398840 -0.48975217321732
 6 -7.66306389148915 -3.65699302170217 -0.45656666676668
 6 -6.23249887108711 -3.64009317021702 -0.09963822442244
 6 -5.92441873057306 -2.23616243074307  0.08826501080108
 6 -8.45304382788279 -4.86743412121212 -0.60125294119412
 6 -5.05962216671667 -4.41360715881588  0.13895192089209
 8 -4.89580132883288 -5.59808034633463 -0.08993848724872
 6 -3.97435116051605 -3.42372293149315  0.53434808200820
 6 -3.39443295419542 -3.73402957845785  1.90384009700970
 8 -4.07174241434143 -4.00767750255025  2.91278994879488
 8 -2.07269894479448 -3.63528983428343  1.91594153335334
 6 -1.21152967506751 -3.98380347044704  3.05138956415642
 6  2.90555244804480 -2.19436461336134 -1.30880212431243
 6  3.95291905930593 -1.21676867796780 -1.12322785508551
 6  5.12366312171217 -1.32454932633263 -2.00439664126413
 6  5.51643562736274 -2.21534466916692 -3.04806178837884
 6  6.21921574617462 -0.33016066896690 -1.61127768626863
 6  7.48983767776778 -0.89978576067607 -0.92387912521252
 6  8.51277383768377  0.01914754935494 -0.38318679917992
 6  9.70809389878988 -0.44697161746175  0.06692838713871
 6  9.68028554485448 -0.98021683638364  1.43384775357536
 6  11.02462479247925  0.51803665786579 -0.06012117371737
 6  12.44047931843184 -0.15164385718572  0.26169448064807
 6  13.42923446604660  0.83183045774577  0.40626352475248
 6  14.89155549074908  0.23409668776878  0.46648131023102
 6  14.90755574367437 -0.47950023052305  1.78309823382338
 6  15.85897552595260  1.27618252025202  0.21545475077508
 6  17.36355583368337  0.87607283168317  0.19460258635864
 6  18.30316986438644  1.91803899509951 -0.12118226502650
 6  19.79586178727873  1.45821431623162 -0.49401948564856
 6  19.67488729002901  0.86803223352335 -2.00383617481748
 6  20.68266543544355  2.68272969096910 -0.42485758165817
 1 -3.59537017531753  3.34497574857486  1.70721012271227
 1 -9.37263124562456  4.01994107920792 -0.38775240914091
 1 -10.07318981058106 -2.59285968526853 -1.32691551745175
 1 -2.21587410421042 -1.36378399619962  1.82013206150615
 1 -1.80422976157616  1.58054853105311  0.45456190959096
 1 -1.36986837053705  0.66673498789879  3.05948665976598
 1 -2.62453062696270  2.17480605700570  3.18012413021302
 1 -2.65916824932493  0.50778866416642  3.29014488358836
 1 -1.57167618791879 -1.74235550855085 -0.59163695049505
 1 -1.79705487448745 -0.26227770067007 -0.88340813161316
 1  0.16362436073607 -0.59241067436744  0.97719358455846
 1 -0.21125484528453 -2.31580791459146  0.84277450955095
 1 -3.91311584198420  5.93975180308031  0.42766772447245
 1 -5.42536281688169  7.02042471837184  0.70826773287329
 1 -4.34203523172317  6.06884584558456  1.87092486478648
 1 -9.02840585468547  5.90521563076308 -0.23888026382638
 1 -12.30378993259326 -1.75661652915292 -1.13557798499850
 1 -13.17237345234523 -0.50485408560856 -0.81894953135314
 1 -13.24968279137914 -0.99736185158516 -3.29389650675068
 1 -12.46049301310131  0.69322674417442 -3.05087725722572
 1 -11.36078290269027 -0.76528984598460 -3.39956656405641
 1 -8.97096627992799 -5.26705326092609 -1.96837906590659
 1 -7.91506672127213 -6.06014602720272 -0.37522717461746
 1 -9.53334061406141 -5.11602356355636  0.21668627812781
 1 -3.22838241964196 -3.47153087798780 -0.18559686648665
 1  3.14608622402240 -3.24200147394739 -1.13835955305530
 1  2.56580086888689 -1.99795571057106 -2.40309054435444
 1  3.57915524322432 -0.51084383278328 -0.11895829422942
 1  4.99747280428043 -1.68063153565357 -3.98402851785178
 1  6.44469804820482 -2.01538021342134 -3.04240546444645
 1  4.98272209960996 -3.38957157145714 -3.03092727652765
 1  6.57167758965897  0.29451478887889 -2.58877149434943
 1  5.79436454585459  0.53279882768277 -1.05729999339934
 1  6.83551473037304 -1.81449964706471 -0.24949322772277
 1  8.01065646404641 -1.61728051835184 -1.51916139203920
 1  8.87776990839084  0.80516111091109 -1.11236402170217
 1  7.79215771387139  0.48621380958096  0.38902461086109
 1  9.70116256335634 -1.54952239593959 -0.50835799339934
 1  8.71335357965797 -1.41531034673467  1.69786814761476
 1  10.77474354375438 -1.58460234143414  1.22022391379138
 1  9.62547575917592 -0.35701692409241  2.12354365946595
 1  10.83906754455445  0.96958971887189 -0.86381355295529
 1  10.94979472607261  1.56217509310931  0.79201308160816
 1  12.05597313951395 -0.73198563806381  1.25655933923392
 1  12.49170132413241 -0.52056027662766 -0.55550854835484
 1  13.32600747074708  1.46163570857086 -0.20715962056206
 1  13.38312035683568  1.35770002130213  1.25159094849485
 1  15.11137256305630 -0.62500001600160 -0.36719491069107
 1  14.62475237513751 -0.03400300480048  2.87216998999900
 1  14.13174044754475 -1.28520619251925  1.67856535463546
 1  16.13419045214522 -0.60610419351935  2.00160663836384
 1  15.63167430233023  1.68585857925793 -0.55261523622362
 1  15.87279131173117  2.05607514301430  1.18866718991899
 1  17.79745106020602  0.15543871447145  1.48160834753475
 1  17.50665819001900  0.07345551475148 -0.58065944334433
 1  17.92565757285729  2.68997554535454 -0.99050203850385
 1  18.48758875497550  2.44570847774778  0.91322799329933
 1  20.09026158735874  0.64672751895190  0.10093344414442
 1  19.55971428942894  1.83288833843384 -2.73313543874387
 1  20.81483577357736  0.47108530673067 -2.15908004140414
 1  18.77027975497550  0.05726800840084 -2.12033010771077
 1  20.31234801340134  2.76811639073907  0.67942869646965
 1  22.03330107040704  2.49311589428943 -0.59750246524653
 1  20.53988064096410  3.45748323552355 -1.27450224652465
 1 -0.38521414651465 -3.58408115751575  2.61774012201220
 1 -1.37364704570457 -5.19456673037304  3.51874251085109
 1 -1.35146916021602 -3.21713019011901  3.90093424662466
 8 -11.48052642694270  3.69941474067407 -1.08479029272927
 1 -12.29065957745775  2.17834907500750 -1.86481708670867

