%nproc=4
%Mem=4GB
# td=(NStates=1) iop(3/107=0140000000,3/108=0140000000) iop(3/107=0140000000,3/108=0140000000) CAM-B3LYP/6-31G(d,p) 

TD

0 1
12 -5.66048755535554  1.20931580588059  0.25641424662466
 6 -5.08560894809481 -2.15589405270527 -0.35601246804680
 6 -3.37621641074107  1.24539482428243  2.78987436073607
 6 -6.13409220492049  4.58021128532853  0.70867107590759
 6 -7.94548031513151  1.16818766946695 -2.36876454995500
 7 -4.53367762106211 -0.32710090189019  1.07405874467447
 6 -4.35432896039604 -1.67625132673267  0.71266361596160
 6 -3.27677080158016 -2.33800710351035  1.41495585928593
 6 -2.98075124612461 -1.32003489438944  2.63997055315532
 6 -3.71035846324633 -0.06979960766077  2.15487007220722
 6 -3.73023606300630 -1.83745718711871  3.91704440384038
 6 -2.01033622682268 -2.56521393069307  0.55359066456646
 6 -0.98175981948195 -3.49731731233123  1.35896948494849
 6  0.19331443194319 -3.78822266296630  0.50740893559356
 8  0.38872893719372 -3.49834714831483 -0.60072630683068
 8  0.98433527922792 -4.66494611191119  1.27639224652465
 7 -4.88809962626263  2.64650402730273  1.54634486618662
 6 -3.93211530133013  2.41127854955496  2.46655725902590
 6 -3.59066857055706  3.67365586778678  3.12987354355436
 6 -4.38537909060906  4.67749927822782  2.52250152145215
 6 -5.21535763996400  3.98194628982898  1.49495558785879
 6 -2.74974033713371  3.77525490129013  4.42118630803080
 6 -4.43061959255926  6.05338275877588  2.95141464626463
 8 -3.78723877187719  6.63414130213021  3.73189708960896
 7 -6.89886368626863  2.62044193999400 -0.71143279957996
 6 -6.98571128592859  3.89825944314431 -0.34070575927593
 6 -7.98530371677168  4.59090581538154 -1.25593970347035
 6 -8.40293974727473  3.64206113601360 -2.11102004640464
 6 -7.71725061556156  2.35204121292129 -1.71213716021602
 6 -8.32907589848985  6.04278418781878 -1.20944045284528
 6 -9.42312667596760  3.80107050525052 -3.11218585138514
 6 -8.81050250395040  3.97061520772077 -4.51349775377538
 7 -6.36444486348635 -0.10290530823082 -1.06418151015102
 6 -7.34467399699970 -0.00335640424042 -2.07923213391339
 6 -7.59576708390839 -1.29295099869987 -2.76065858845885
 6 -6.67836738553855 -2.17338691049105 -2.11518768446845
 6 -6.01431984738474 -1.43646721182118 -1.14437056745675
 6 -8.58553401120112 -1.71730185618562 -3.81215811201120
 6 -6.18170183728373 -3.59182476637664 -1.96949050415041
 8 -6.62266666216622 -4.56783448184818 -2.62238850395040
 6 -5.01943050515052 -3.61592964556456 -0.74024634443444
 6 -5.27731520892089 -4.71638707980798  0.19107277907791
 8 -5.61629740134013 -4.50736974507451  1.33760012341234
 8 -4.98638833703370 -5.90939213561356 -0.26197934253425
 6 -5.17133469766977 -7.08977083038304  0.52569439923992
 6  2.29645061826183 -5.09136025622562  0.61177513191319
 6  3.37303183818382 -4.13702386328633  0.91823972377238
 6  3.96813620382038 -3.22179504960496  0.08917255225523
 6  3.70756509540954 -3.16719166046605 -1.35652515701570
 6  5.12600902670267 -2.45210025762576  0.67909170797080
 6  6.47175204650465 -2.74210713591359  0.04757622502250
 6  7.47939326292629 -1.76605596109611  0.57803349384938
 6  8.90769159045905 -1.89184401800180 -0.13090087258726
 6  9.49471585328533 -3.26708734913491  0.04264080638064
 6  9.93786436553655 -0.86923716111611  0.36185870137014
 6  11.27395469786979 -0.76651625852585 -0.40079884608461
 6  12.20893858245825  0.38558318581858  0.12085893349335
 6  13.56080853665367  0.63128799869987 -0.57178194139414
 6  14.42582088108811 -0.62493189578958 -0.49686383728373
 6  14.21350729032903  1.87641381298130 -0.15613486828683
 6  15.51957614801480  2.13959198739874 -0.87557255225523
 6  16.20960354475448  3.46589134193419 -0.50467108030803
 6  17.55029027812781  3.85353319491949 -1.20537447264726
 6  17.33206579627963  3.79163405510551 -2.77262948714871
 6  18.04705411151115  5.23217848314832 -0.65522498139814
 1 -2.59465518831883  1.06822109750975  3.51417188558856
 1 -6.26327430623062  5.59455483588359  0.77074606630663
 1 -8.73324373157316  1.14585488838884 -3.17859333813381
 1 -3.42417348214821 -3.38209352475247  1.81377943874387
 1 -1.84873199709971 -1.24500216181618  2.98556983308331
 1 -3.14217399649965 -2.64595775697570  4.26122966696670
 1 -3.78735952865286 -0.91538144254425  4.47967999779978
 1 -4.62858537023702 -2.35427450835083  3.70689463996400
 1 -2.32790810451045 -2.92252176947695 -0.41907253105310
 1 -1.38486631903190 -1.70780989728973  0.39708783038304
 1 -0.60078551205121 -3.04035533113311  2.32124634333433
 1 -1.57658237983798 -4.32318945014501  1.71070286828683
 1 -1.76159627342734  3.72611213561356  3.98996490619062
 1 -2.87717870797080  4.83490069606961  4.83698995669567
 1 -3.02378537353735  3.00553155065507  5.24910991699170
 1 -5.15470853475347  6.72408660306031  2.34538986038604
 1 -10.25781491499150  3.02582323942394 -3.25121837353735
 1 -10.02944374227423  4.85140898499850 -2.85690598129813
 1 -9.48666846664666  3.98582699669967 -5.27109231153115
 1 -8.03281279067907  4.89673941934193 -4.43862381738174
 1 -8.57989783878388  2.87338669746975 -4.76659658445845
 1 -8.36762435203520 -1.15597614051405 -4.72549354765477
 1 -8.56698768176818 -2.89543294839484 -4.02465510251025
 1 -9.60159023852385 -1.45255207860786 -3.40549745644564
 1 -4.12950030743074 -3.90601542814281 -1.27291057795780
 1  2.46462759575958 -6.08632657565757  1.10106606350635
 1  2.06338708210821 -5.28563553965397 -0.43908735833583
 1  3.80276239853985 -4.36044532633263  1.88713372097210
 1  2.89404439113911 -3.65150077117712 -1.77821036203620
 1  3.71644625792579 -2.17977153645365 -1.85658812931293
 1  4.56759893389339 -3.76190992019202 -1.90749967586759
 1  4.99783982488249 -1.39239566356636  0.58922080558056
 1  5.14473300060006 -2.53734536693669  1.80260514081408
 1  6.75594312101210 -3.71001419351935  0.43435131913191
 1  6.59180934133413 -2.72181979097910 -1.13346394189419
 1  7.01225015631563 -0.68664198929893  0.30628787428743
 1  7.57684978787879 -2.01321790489049  1.52497688298830
 1  8.78671278057806 -1.75392366756676 -1.22210554865487
 1  8.73375789448945 -3.98299707110711 -0.36156994939494
 1  10.46448578937894 -3.48535273737374 -0.49529964346435
 1  9.83012207360736 -3.51805289678968  0.89469991269127
 1  9.45851500210021  0.05003072927293  0.02348771257126
 1  10.00306040354035 -0.83622015591559  1.39935947594759
 1  11.77411255255526 -1.68592862476248 -0.25343971717172
 1  11.05092117881788 -0.51254415931593 -1.43439477307731
 1  11.65107614111411  1.29387381658166 -0.01334088928893
 1  12.22320714401440  0.36958815021502  1.22477075727573
 1  13.37236403710371  0.77244167646765 -1.45887812651265
 1  14.96893623192319 -0.67842605530553  0.47260294029403
 1  13.71902747374737 -1.64875389168917 -0.66712303380338
 1  15.28587957635764 -0.78700189838984 -1.12977987048705
 1  13.45675386958696  2.78186280538054 -0.25966775447545
 1  14.43306000630063  1.83806409560956  0.85701291519152
 1  16.36584824062406  1.29236784948495 -0.86597308800880
 1  15.40396597999800  1.97635154795480 -1.89395077477748
 1  15.32438384298430  3.98667404540454 -0.67544954305430
 1  16.24708747884788  3.47594423582358  0.63525342574257
 1  18.18277195859586  3.01802329352935 -0.86160524012401
 1  16.60996171657165  4.62852938183818 -2.93821618141814
 1  18.32419834333433  4.22746225952595 -3.31967657275728
 1  17.02516271647165  2.81328239823982 -3.28522655725573
 1  18.07516356355636  5.17354857235724  0.42421408560856
 1  18.97666518881888  5.56522067426743 -1.20377729212921
 1  17.28582013291329  6.01191069416942 -0.85977003830383
 1 -4.73153845524552 -7.85586501960196 -0.29646318401840
 1 -6.28654308460846 -7.14339142574258  0.73499700720072
 1 -4.64303247184719 -7.22217379297930  1.42173663026303
 8 -7.84583217481748  6.85943244404440 -0.46547433143314
 1 -9.38211650875088  6.19433507840784 -1.88751443424342

