%nproc=4
%Mem=2GB
# td=(NStates=1) iop(3/107=0140000000,3/108=0140000000) iop(3/107=0140000000,3/108=0140000000) CAM-B3LYP/6-31G(d,p) 

TD

0 1
12 -6.74294686678668  0.65119426352635  0.14529214871487
 6 -4.60720782728273 -2.01308973077308  0.45552582958296
 6 -4.20468228362836  2.71791342444244  0.92115499709971
 6 -8.82430513521352  3.06998102220222 -0.14055355705571
 6 -9.45274337193719 -1.79762279187919 -0.45219527822782
 7 -4.72163723562356  0.44797419511951  0.69968900100010
 6 -4.00381764736474 -0.72476218301830  0.64949550495050
 6 -2.54785820442044 -0.56478823802380  0.92259432173217
 6 -2.41887185298530  0.90415056385639  1.18059022152215
 6 -3.80355661856186  1.44070415561556  0.86146092079208
 6 -2.22845913161316  1.38792058795880  2.70978554135414
 6 -1.72363111151115 -1.05895845924592 -0.40537921162116
 6 -0.31069918821882 -1.30697240384038 -0.03230415691569
 6  0.79441052025202 -1.40713795069507 -1.09341751555156
 8  0.56982705080508 -0.90152276477648 -2.27337832803280
 8  1.87502778937894 -1.91300159875988 -0.58868379087909
 7 -6.53347508970897  2.65658602860286  0.38939268716872
 6 -5.38705926682668  3.32281092429243  0.60834713091309
 6 -5.77372158735874  4.76625631043104  0.50190505910591
 6 -7.19319003240324  4.97522361286129  0.27267385068507
 6 -7.58710041394139  3.50973978237824  0.23238807020702
 6 -4.86363128342834  5.81283871437144  0.78273594159416
 6 -7.73488504980498  6.20369728982898  0.07319684338434
 8 -7.32395631183118  7.31301291789179  0.56292414921492
 7 -8.90070362386239  0.72345320452045 -0.11205385448545
 6 -9.42523619601960  1.81763649894989 -0.35369642194219
 6 -10.99505613591359  1.50536040714071 -0.71659744094409
 6 -11.15837019451945  0.06984788918892 -0.62782363786379
 6 -9.73548521182118 -0.44519268246825 -0.41372344904490
 6 -11.98773554885488  2.52938913201320 -0.96004065486549
 6 -12.32876599709971 -0.63201676397640 -0.90371850555055
 6 -12.46652351445145 -1.25314747994799 -2.49675246994699
 7 -6.94249073197320 -1.42439500080008 -0.00361300580058
 6 -8.08796145774577 -2.30062005870587 -0.28737193519352
 6 -7.64443202830283 -3.50611793419342 -0.38610962106211
 6 -6.13268889008901 -3.56950611151115 -0.18122638323832
 6 -5.82913920262026 -2.26293510801080  0.14805098939894
 6 -8.47142566606661 -4.61469884768477 -0.68904172007201
 6 -5.04830103460346 -4.33997979607961  0.13720174587459
 8 -4.63099484818482 -5.68585912421242 -0.20190968436844
 6 -3.84086781218122 -3.37630819001900  0.43765841304130
 6 -3.28455196609661 -3.56758293379338  1.96814652765277
 8 -4.04132937303730 -4.21023775857586  2.94632330213021
 8 -1.89399107400740 -3.31866817211721  1.98077801700170
 6 -1.35066358845885 -3.66594168426843  3.05042946814681
 6  3.05896778957896 -2.20237541444144 -1.59294053815382
 6  4.01069483688369 -1.12209921102110 -1.32082761506151
 6  5.14515527092709 -1.15568243964396 -2.09414561616162
 6  5.46631061486149 -2.35303843854386 -3.29888687088709
 6  6.20096392099210 -0.05627328022802 -1.90381694019402
 6  7.48630732473247 -0.77355313741374 -1.35950268756876
 6  8.50374293459346  0.29600523512351 -0.86710519101910
 6  9.77756084548455 -0.44680160046005 -0.18415672137214
 6  9.40486800310031 -1.07568638333833  1.21057542634263
 6  11.02282461246125  0.57711256545655  0.07526236463646
 6  12.23398866936694  0.05939724692469  0.21747005820582
 6  13.33644518711871  1.05508278297830  0.31095399379938
 6  14.81100743594360  0.40037331543154  0.65229989208921
 6  14.85025001310131 -0.08965124562456  2.16650657465747
 6  15.90628025642564  1.41198610061006  0.22293549884989
 6  17.23647312541254  0.74459968436844  0.17063018911891
 6  18.44829437683768  1.77825501670167  0.04812466566657
 6  19.81412361346135  1.19274776957696 -0.08215829952995
 6  20.08819862116212  0.44882031233123 -1.34847063826383
 6  20.88783595249525  2.23639505750575  0.15295019911991
 1 -3.47893853215322  3.20651190219022  1.18395779747975
 1 -9.72148613111311  4.06337542264226  0.04693105920592
 1 -10.31874436603660 -2.44335473477348 -0.91784461036104
 1 -2.27462997979798 -1.08284590239024  2.01247129542954
 1 -1.78227756635664  1.29009948614862  0.66719317271727
 1 -1.61413279697970  0.50121843624362  2.80615132623262
 1 -1.92961113501350  2.57213578997900  2.52735885368537
 1 -3.08672100460046  1.41677956325632  3.43360923002300
 1 -2.23947296759676 -1.65410668366837 -0.93260104690469
 1 -1.89380454945494 -0.08996046894689 -1.23852364316432
 1 -0.24290629232923 -0.38890032333233  0.88262412761276
 1  0.06082236243624 -2.31237757155716  0.68452868496850
 1 -3.95186971737174  5.88303613151315  0.28012296999700
 1 -5.45897617821782  6.79383205910591  0.59775668176818
 1 -4.72047307550755  5.80631959295930  1.87501527382738
 1 -8.64986800090009  5.84563967316732 -0.63970034583458
 1 -12.50061961556156 -1.64310517801780 -0.23594802200220
 1 -13.03298951395139  0.00724712451245 -0.70535817221722
 1 -13.17818564166417 -1.77869998539854 -2.62571968906891
 1 -12.35629259305931 -0.15187776627663 -2.95217738723872
 1 -11.17548437283728 -1.54731804880488 -2.40921752915292
 1 -9.40052923622362 -3.98538509410941 -1.40806303430343
 1 -7.76191140574057 -5.47307732033203 -1.46627627952795
 1 -8.94336161616162 -5.22089405060506  0.44542915241524
 1 -2.86905648704870 -3.43404712961296 -0.18803711051105
 1  3.59964157955796 -3.48925619941994 -1.30560627772777
 1  2.56182047084708 -2.60172608760876 -2.40097033233323
 1  3.73947127482748 -0.40616336473647 -0.42666906530653
 1  4.41060411741174 -2.21575504800480 -3.71910202520252
 1  6.18967254565456 -2.01833050845084 -4.16543776767677
 1  5.68462228962896 -3.48176079037904 -2.66595077887789
 1  6.40486090799080  0.74216955435543 -2.72408502570257
 1  5.70720582998300  0.85290083788379 -1.15594985838584
 1  7.28964014291429 -1.59027722482248 -0.55719399779978
 1  8.09133453185319 -1.65665445574557 -2.08089756565657
 1  8.95554768616862  0.66948754355435 -1.77727051235124
 1  8.12541103920392  0.78262345054505 -0.00154444604460
 1  10.00837328442844 -1.18323576727673 -0.87608476607661
 1  8.78212045634564 -1.86572538823882  0.66487484828483
 1  10.20868693809381 -1.70345422662266  1.60725261666167
 1  9.09320253185319 -0.33759498189819  1.73207451255126
 1  10.88011164896490  1.20890365026503 -0.74532170377038
 1  10.74765451205120  1.48072694829483  1.02336621692169
 1  12.25992353455345 -0.71980441994199  1.18756243954395
 1  12.42189434343434 -0.43304152475247 -0.77272026952695
 1  13.54947981798180  1.57225677067707 -0.65561446604660
 1  13.20580262506251  1.91939619091909  1.08359414881488
 1  14.98060948674867 -0.34576209220922  0.05399720852085
 1  14.50938083798380  0.73277367286729  2.79184195719572
 1  14.15054232773277 -0.65403307520752  2.56237373547355
 1  15.95965299839984 -0.61960554365436  2.45692216991699
 1  15.73601473637364  1.89643963736374 -0.57476745144514
 1  16.01738577117712  2.12064159965997  0.91757008020802
 1  17.33379469456946  0.12276544714471  1.20685087178718
 1  17.20687821202120 -0.00016184698470 -0.74635601300130
 1  18.29991499859986  2.58261480928093 -0.43903689198920
 1  18.28169816591659  2.08259216611661  1.10545721622162
 1  19.86517907910791  0.51953479967997  1.05821917271727
 1  19.91309962796279  0.91663671327133 -2.46301842704270
 1  20.99704399439944 -0.00474227602760 -1.39145327872787
 1  19.50791351835183 -0.49729744814481 -1.66298437313731
 1  20.62950972957296  2.75283486258626  1.30942169576958
 1  21.90285802610261  1.55399198189819 -0.14956767176718
 1  20.82960961386138  3.54903239043904 -0.53254805110511
 1 -0.38691431653165 -4.40698344774477  2.51202955095509
 1 -1.96910659165917 -4.22305957965797  4.03538417501750
 1 -1.10808482178218 -2.81418989608961  3.43655780898090
 8 -11.74349272357236  3.64131893109311 -0.80769258295830
 1 -13.02807331883188  1.96895813591359 -1.03967457245724

