%nproc=3
%Mem=2GB
# td=(NStates=10) iop(3/107=0140000000,3/108=0140000000) CAM-B3LYP/6-31G(d,p) 

TD

0 1
12 -7.22743441274127  0.54039227992799  0.31359940854085
 6 -4.86313519461946 -1.93801591289129  0.53339897479748
 6 -4.92957226352635  2.78443277057706  1.20131358855886
 6 -9.47040162896289  3.09832223162316 -0.28925025802580
 6 -9.54138516611661 -1.82150232523252 -0.82996111111111
 7 -5.07003978557856  0.44883614411441  0.83345086548655
 6 -4.31426903220322 -0.65124574497450  0.77179908270827
 6 -2.92919388058806 -0.33141841394139  1.28858429962996
 6 -3.00898118731873  1.13543467596760  1.72762556895690
 6 -4.43634172087209  1.50583096349635  1.19119538073807
 6 -2.97885567656766  1.18943543084308  3.26660018611861
 6 -1.89541382228223 -0.57609161926193  0.06133545934593
 6 -0.44199245324532 -0.48916714811481  0.44712329522952
 6  0.47724710311031 -0.53402683478348 -0.71302295409541
 8  0.20950149984998 -0.93384478827883 -1.85668494879488
 8  1.77666469146915 -0.20239514631463 -0.41784600470047
 7 -7.18753636213621  2.59517092439244  0.43399855665567
 6 -6.18652578357836  3.33204415831583  0.82139012301230
 6 -6.52793078277828  4.76174680508051  0.92021978647865
 6 -7.84771536693669  4.88064795149515  0.51403831083108
 6 -8.15813636683668  3.52089238053805  0.16650698989899
 6 -5.54608038923892  5.81816290759076  1.34620114531453
 6 -8.75106431883188  5.99584465246525  0.41271129302930
 6 -8.37204640244024  7.32048813311331  0.06704244194419
 7 -9.10659569526953  0.60203668196820 -0.53800550585059
 6 -9.91319297829783  1.83926460906091 -0.61776690089009
 6 -11.21797654055406  1.41250224062406 -1.13974872447245
 6 -11.25418393909391  0.09145302260226 -1.23364263046305
 6 -9.91684156785679 -0.42420090819082 -0.81750105300530
 6 -12.26284452655266  2.46871915281528 -1.48690922182218
 6 -12.33348339403940 -0.92193325552555 -1.77312248944895
 6 -12.13184951695170 -1.07701158635864 -3.30922902830283
 7 -7.33008926102610 -1.49880924252425 -0.09406252495250
 6 -8.34516973927393 -2.30275621512151 -0.45855366126613
 6 -7.80603827132713 -3.73017720062006 -0.40352878187819
 6 -6.48162368436844 -3.61690600610061 -0.05940843294329
 6 -6.14877965616562 -2.20088624312431  0.11423304470447
 6 -8.57736808150815 -4.90275309420942 -0.70063961096110
 6 -5.26040257795780 -4.30347633293329  0.17865636553655
 8 -5.11972333413341 -5.47964061766177  0.23642967776778
 6 -4.15912932293229 -3.25175810991099  0.52228312031203
 6 -3.50466483068307 -3.60953703830383  1.85228640834083
 8 -3.65544919951995 -3.05397863066307  2.92546626192619
 8 -2.61457280518052 -4.59678783128313  1.71958004600460
 6 -2.19907254575458 -5.19810027932793  3.01382271927193
 6  2.81255503210321 -0.58590784848485 -1.45279065396540
 6  4.17647096949695 -0.37089093849385 -0.71285381408141
 6  5.17441104850485  0.49632295679568 -1.10738063826383
 6  5.16492390899090  1.37289182548255 -2.28856594769477
 6  6.52500895849585  0.45016382328233 -0.33039972617262
 6  7.67834557345735 -0.17899978187819 -1.17531720042004
 6  8.92294137653765 -0.05097483098310 -0.36215881008101
 6  10.20831172417242 -0.52139923822382 -1.10311670607061
 6  10.14710189638964 -1.94515385028503 -1.58360002150215
 6  11.36105722282228 -0.23986487708771 -0.16214601590159
 6  12.77517468646865 -0.55213172907291 -0.69899043884388
 6  13.96445213301330 -0.14653141634163  0.24207142014201
 6  15.34465980998100 -0.29439205090509 -0.34864791509151
 6  15.70676477867787 -1.78228101390139 -0.69772705250525
 6  16.43866712071207  0.30331471757176  0.58368755345535
 6  17.81841754605461  0.45829395519552 -0.03369164906491
 6  18.82337773727373  1.05711755855586  0.81217357905791
 6  20.21244892469247  1.31796754135414  0.37121672527253
 6  20.32339256815682  2.13148879687969 -0.98294411581158
 6  21.18520639473947  1.88311268066807  1.36659336093609
 1 -4.19083934243424  3.51100948264826  1.57474199519952
 1 -10.16096984868487  3.74419200310031 -0.59722402500250
 1 -10.25420468226823 -2.66861691639164 -1.09090263776378
 1 -2.68243693439344 -0.96765642934293  2.10274751335133
 1 -2.12428206620662  1.63332182078208  1.18644301080108
 1 -1.96514023732373  1.11011650065006  3.67821803520352
 1 -3.19759454565457  2.14420387698770  3.51662623012301
 1 -3.58112909410941  0.42050641834183  3.75715960046005
 1 -1.95969849674967 -1.70675659605961 -0.16024101010101
 1 -1.85101930413041  0.03074516581658 -0.81713681528153
 1 -0.24307140114011  0.61636956045605  0.93038529042904
 1 -0.15807176087609 -1.32225520092009  1.12994587048705
 1 -4.91763393109311  6.39959513461346  0.55847762996300
 1 -6.04507917821782  6.65496529532953  1.79769445864586
 1 -4.73593682248225  5.34173934533453  2.15058873757376
 1 -9.81761926082608  5.88391132723272  0.35732357685769
 1 -9.11563220362036  8.12287087658766  0.02084267756776
 1 -7.42680771737174  7.61017158635864 -0.30671514211421
 1 -11.78814422722272  3.08659596489649 -2.29836613501350
 1 -13.05908112161216  1.83301893999400 -1.78234175787579
 1 -12.69496645804581  3.14366745214521 -0.51048254625462
 1 -12.40503303140314 -1.88740113831383 -1.34940514841484
 1 -13.37018302190219 -0.48579239223922 -1.62371972897290
 1 -12.93924439063906 -1.83180441964196 -3.60591358905891
 1 -12.14520469446945 -0.31279000490049 -3.85898347334733
 1 -11.29717306490649 -1.70959390339034 -3.60981009650965
 1 -9.34903579947995 -4.85532838113811 -1.58469605100510
 1 -7.93691739273927 -5.74085419361936 -0.91929615771577
 1 -9.30381254705470 -5.35026181318132  0.19989173297330
 1 -3.41521165316532 -3.18760034453445 -0.28523517651765
 1 -1.48481957195720 -4.61218959625963  3.50049673667367
 1 -3.08410359775978 -5.34094473687369  3.49905712781278
 1 -1.92693411991199 -6.30074425152515  2.83982068496850
 1  2.45034970607061 -1.72500219011901 -1.74890896719672
 1  2.54995669586959  0.12164508290829 -2.22478449824982
 1  4.23707293159316 -1.05091309750975  0.26715909210921
 1  4.15195613191319  1.43293438973897 -2.61953529582958
 1  5.56492979137914  2.21038542874287 -2.04671902650265
 1  5.68574389718972  1.07565789598960 -3.03587488678868
 1  6.75293831713171  1.56818304600460 -0.12227472977298
 1  6.67729107710771  0.03302005310531  0.71182218931893
 1  7.41624536663666 -1.25864693639364 -1.23683781248125
 1  8.02617414841484  0.42227910441044 -2.09181932883288
 1  8.92800889808981  0.90536315281528 -0.04004004150415
 1  9.10061788458846 -0.33496185158516  0.74052867146715
 1  10.42555426692669  0.04328909520952 -2.08045187578758
 1  9.35043153955396 -2.15831287558756 -2.26050101130113
 1  11.06312939763976 -2.31523803640364 -2.01718790479048
 1  9.68157563116312 -2.59216083868387 -0.77988007870787
 1  11.29429419161916  0.74770917841784 -0.01288932553255
 1  11.37752816251625 -0.93858619671967  0.65649312231223
 1  13.05399113481348 -1.61203806520652 -1.05739407430743
 1  12.84144305030503  0.20424990399040 -1.48945730953095
 1  13.74844634783478  0.71255451095110  0.65322198269827
 1  14.10195628592859 -0.86402884018402  1.22928809850985
 1  15.49819221132113  0.22197205760576 -1.28948860836084
 1  15.87253925492549 -2.20058678457846  0.40913331573157
 1  14.90722825462546 -2.27115530913091 -1.07688540894089
 1  16.73550160876088 -1.79084301290129 -1.16603871267127
 1  16.07687289698970  1.31990106280628  0.74053747474747
 1  16.24907660966097 -0.22925932163216  1.44896782848285
 1  18.23506269816982 -0.54228119191919 -0.06534254185419
 1  17.53146322752275  1.02720397889789 -1.10153363726373
 1  18.59059774257426  2.05114701430143  1.23779888078808
 1  18.84808108550855  0.45539915121512  1.75515186678668
 1  20.85105517221722  0.36394283008301  0.26487423782378
 1  19.92621945524553  3.27893687858786 -0.79496976647665
 1  21.10144625852585  2.30124600250025 -1.29463071707171
 1  19.85606643984398  1.50747214951495 -1.78821924522452
 1  21.27618763406341  1.24854415821582  2.19541898349835
 1  22.09228386888689  2.22494102530253  0.89242350855086
 1  20.95924845744575  2.91694537073707  1.56661259245925

