%nproc=3
%Mem=2GB
# td=(NStates=10) iop(3/107=0140000000,3/108=0140000000) CAM-B3LYP/6-31G(d,p) 

TD

0 1
12 -7.19607127642764  0.65063330403040  0.08448649724972
 6 -4.90466934803480 -1.91427353865387  0.59512514741474
 6 -4.86019532583258  2.84493882118212  1.11435489268927
 6 -9.48666325512551  3.15154755415542 -0.34375570857086
 6 -9.53195422302230 -1.77796797179718 -0.90732884788479
 7 -5.06199898149815  0.46153741424142  0.64184170457046
 6 -4.32679028432843 -0.67809843024302  0.78870077287729
 6 -2.85079604080408 -0.34113938603860  1.13071851305131
 6 -3.01324161336134  1.08074920742074  1.58448125452545
 6 -4.40971905860586  1.57016739713971  1.06851311251125
 6 -2.90910870187019  1.20331681898190  3.17535106120612
 6 -1.82239652055206 -0.53461747184718  0.08622794859486
 6 -0.40748900290029 -0.42093032443244  0.56988557145715
 6  0.54171354975498 -0.66787021912191 -0.53264491629163
 8  0.31963251295130 -1.15197660146015 -1.68007728802880
 8  1.81128815381538 -0.49619452625263 -0.08299251935194
 7 -7.19458706720672  2.70077148444844  0.35905106190619
 6 -6.09935706670667  3.37304825872587  0.80037802180218
 6 -6.47275526522652  4.73495412581258  0.93828159265927
 6 -7.78981957735774  4.83567345404540  0.40107701470147
 6 -8.26249680288029  3.53991428272827  0.17577791699170
 6 -5.75128090929093  5.98673976527653  1.41247777297730
 6 -8.60441965436544  6.01106617461746  0.35133515541554
 6 -8.32594179197920  7.34370045434543  0.07524326202620
 7 -9.23806884258426  0.58545502380238 -0.50576228152815
 6 -9.92341400040004  1.68940962356236 -0.58715383958396
 6 -11.23741848474848  1.40479146954695 -1.10427517711771
 6 -11.23472199289929  0.04396827412741 -1.21878114431443
 6 -10.03076295999600 -0.48007649574958 -0.86649595249525
 6 -12.39203744584458  2.40211249214921 -1.27520805170517
 6 -12.34271431713171 -0.82404346654665 -1.57348252545255
 6 -12.21995832783278 -1.01897578277828 -3.20512861826183
 7 -7.17252350445044 -1.37547690929093 -0.21740485918592
 6 -8.24675989828983 -2.21865780528053 -0.60838864476448
 6 -7.77347501500150 -3.63789797269727 -0.59711814081408
 6 -6.48710423242324 -3.48768308380838 -0.20329282138214
 6 -6.16577135533553 -2.17171332583258  0.07747936933693
 6 -8.79794013871387 -4.72308512741274 -0.91203075007501
 6 -5.28392493019302 -4.32770875617562  0.13062156205621
 8 -5.06446780858086 -5.53736639023902  0.11020705550555
 6 -4.11411482148215 -3.26530946504650  0.50301119311931
 6 -3.58371273547355 -3.75229131373137  1.90177135683568
 8 -3.88534218881888 -3.20566379917992  2.97677139243924
 8 -2.82307365526553 -4.77096524902490  1.78294638263826
 6 -2.14382702120212 -5.28075854515452  2.86378771577158
 6  2.87281105770577 -0.73072232993299 -1.10545592049205
 6  4.12395571797180 -0.42472632203220 -0.49515204390439
 6  5.08332193959396  0.36698002250225 -0.91377127732773
 6  4.93507092369237  1.26436097239724 -2.19542663376338
 6  6.47996445404540  0.42947175407541 -0.26462314851485
 6  7.60235797469747 -0.23244512641264 -0.98754842354235
 6  8.84338342074208 -0.21307104060406 -0.12088468266827
 6  10.21428232123212 -0.54461155945595 -0.82534892929293
 6  10.23889107530753 -1.99253858875888 -1.23713537503750
 6  11.42430354745475 -0.22563345394539  0.07761796049605
 6  12.72050921992199 -0.53756027192719 -0.65943648344834
 6  14.04002969076908 -0.06638340154015  0.23483069606961
 6  15.34956030003000 -0.28240085178518 -0.56332938323832
 6  15.83322742494249 -1.73015580138014 -0.75969324912491
 6  16.46214946894689  0.40041442754275  0.43570275497550
 6  17.94185989028903  0.60180830663066 -0.19913819371937
 6  18.81527692719272  1.24735658245825  0.67339970167017
 6  20.35525320512051  1.39173491809181  0.15095469906991
 6  20.40810103900390  2.25518116611661 -1.15294111551155
 6  21.21925980008001  1.89843421282128  1.21680838243824
 1 -4.01202146064606  3.36203458515852  1.38834335533553
 1 -10.09315306700670  3.88199578347835 -0.41653595619562
 1 -10.04850411221122 -2.59973002770277 -1.30965451295130
 1 -2.47723641434143 -0.91125078877888  2.10587782638264
 1 -2.39741937993799  1.86514500310031  0.87966233273327
 1 -1.83031675497550  0.76396188518852  3.40343055645565
 1 -2.97240202640264  2.11997145374537  3.48555312281228
 1 -3.61627260846085  0.73137750545054  3.73890777527753
 1 -1.92099462636264 -1.57593351375138 -0.41799678567857
 1 -1.78638284048405  0.28608069936994 -0.72751785338534
 1 -0.05423251725173  0.63720164366437  1.03317556945695
 1 -0.44639059275928 -1.34285726112611  1.25219809570957
 1 -5.23130529822982  6.26030120522052  0.44480626282628
 1 -6.48720339063906  6.84449424822482  1.75760044924492
 1 -5.17083031183118  5.74550972237224  2.18066174487449
 1 -9.63165066396640  5.68427136323632  0.57980582508251
 1 -9.08036867726773  8.11602019151915 -0.18228763546355
 1 -7.27306234283428  7.53371394059406 -0.31063553415341
 1 -12.09716512931293  3.22739004430443 -2.01354765316532
 1 -13.20710592409241  2.02703834193419 -1.73203672737274
 1 -12.66537349874988  2.93348643404341 -0.38596009400940
 1 -12.38931145924592 -1.97287968616862 -1.34564477237724
 1 -13.25011101470147 -0.42661647464746 -1.46536389338934
 1 -13.08119858605860 -1.56123736293629 -3.57184018171817
 1 -12.10672084608461 -0.11466019191919 -3.75841341634163
 1 -11.12322567016702 -1.12456540054005 -3.43697281278128
 1 -9.17656855275528 -4.64270711901190 -1.88698628002800
 1 -7.99614331533153 -5.64055416361636 -0.75356958505851
 1 -9.61105327112711 -4.72857964496450 -0.26425468166817
 1 -3.33184331633163 -3.37058864336434 -0.10605725872587
 1 -1.55379646964696 -4.48928730603060  3.36349303630363
 1 -2.87001218861886 -5.69941058345835  3.51525874797480
 1 -1.47338876537654 -6.06800097719772  2.46050275317532
 1  2.65361003210321 -1.63313300320032 -1.61448552485249
 1  2.57940964116412 -0.06258333993399 -1.99259127892789
 1  4.33545276957696 -0.95826383258326  0.58558093429343
 1  3.89681061736174  1.30616171247125 -2.56829017131713
 1  5.27108040644064  2.35409980018002 -1.74002835743574
 1  5.52568789158916  0.88359869006901 -2.97139843914391
 1  6.62671569486949  1.35856208390839  0.04920241794179
 1  6.51454480248025  0.02001875297530  0.73262426952695
 1  7.18182192429243 -1.20516158785879 -1.22139626832683
 1  7.71421295229523  0.37110398689869 -1.94143429032903
 1  9.00949704690469  0.82558517501750  0.25582954545455
 1  8.65373319611961 -0.97809616501650  0.75902052065207
 1  10.44895660716072  0.22028679497950 -1.66344017461746
 1  9.37514401080108 -2.44613165746575 -1.78145310651065
 1  11.14582766746675 -2.25235174777478 -1.97773395939594
 1  10.34249172277228 -2.58196981958196 -0.19156124682468
 1  11.41855661786179  0.92801720922092  0.28171013441344
 1  11.33829423912391 -0.83379571767177  1.02736020902090
 1  12.87189292499250 -1.56805366676668 -0.91089942484248
 1  12.74673357935794  0.00500997999800 -1.56414477827783
 1  13.97445894909491  0.89688294379438  0.56380304080408
 1  14.25970206050605 -0.75361779907991  1.23444861456146
 1  15.25828822092209  0.32844270467047 -1.49682934243424
 1  16.19412141314131 -2.43579030493049  0.25951835423542
 1  14.97929546134614 -2.20546874047405 -1.11160888128813
 1  16.54925298389839 -1.60263419201920 -1.55144725352535
 1  16.16070127982798  1.43842291499150  0.53224664566457
 1  16.54762646464647 -0.12085848154815  1.39098202990299
 1  18.16464565646565 -0.24937190099010 -0.58576458405841
 1  17.94904498569857  1.03322458095810 -1.12837632153215
 1  18.28724740754075  2.19677157675768  0.92445754665467
 1  18.76940321772177  0.57772138343834  1.49948630023002
 1  20.71651171787179  0.53783021882188 -0.19444169376938
 1  20.15903273657366  3.25581456635664 -0.97130740024002
 1  21.38036415031503  2.06580245814581 -1.52754400840084
 1  19.64600543374337  1.79676107840784 -1.83726414971497
 1  21.45371538683868  1.15657496129613  2.06865630723072
 1  22.13787842834283  2.06790532173217  0.72815708190819
 1  20.84176670927093  2.78909258545855  1.76612254345435

