%nproc=3
%Mem=2GB
# td=(NStates=10) iop(3/107=0140000000,3/108=0140000000) CAM-B3LYP/6-31G(d,p) 

TD

0 1
12 -7.15460713001300  0.55033327402740  0.17322537113711
 6 -4.83080196129613 -1.99382149344935  0.44057969286929
 6 -4.74325363166317  2.87014134143414  1.11481493869387
 6 -9.39964455325532  3.13465586498650 -0.25773710671067
 6 -9.53063409100910 -1.70372054705471 -0.79632774777478
 7 -5.20542332393239  0.42319357985799  0.68684620502050
 6 -4.37252485778578 -0.73159377977798  0.79211111391139
 6 -2.96862782398240 -0.40355562766277  1.18543398459846
 6 -3.08425871507151  1.03603473597360  1.65245805220522
 6 -4.41995008170817  1.48994937533753  1.06585284648465
 6 -2.80602839383938  1.33970045734573  3.09217274337434
 6 -1.96387066796680 -0.69966397649765  0.11236056185619
 6 -0.46656491049105 -0.59459769116912  0.51710029292929
 6  0.55068444684468 -0.75254868696870 -0.65709736153615
 8  0.29214976467647 -1.19615101890189 -1.72287156745675
 8  1.80761778677868 -0.50573548034803 -0.22083630373037
 7 -7.03112072057206  2.59651105840584  0.31480663746375
 6 -6.00536766776678  3.36129708360836  0.74943292729273
 6 -6.39352734243424  4.81765239563956  0.81494925942594
 6 -7.77567816321632  4.83285317201720  0.44690159715972
 6 -8.16343689688969  3.46009630093009  0.19487982718272
 6 -5.48952473367337  5.89732082338234  1.09956648184819
 6 -8.66062527492749  6.00370543854385  0.37556757865787
 6 -8.23971316911691  7.22323840814081  0.05296103380338
 7 -9.03967900360036  0.66969344764476 -0.50688239353935
 6 -9.83056471547155  1.78755943854385 -0.51836696089609
 6 -11.23152789568957  1.47663865426543 -0.93295804540454
 6 -11.31485000570057  0.07602147944794 -1.27943720992099
 6 -9.94377426112611 -0.33378186628663 -0.93566286918692
 6 -12.38487672977298  2.46702898379838 -1.27845837673767
 6 -12.48156820252025 -0.73267432963296 -1.56799197639764
 6 -12.33525985798580 -1.02752663786379 -3.19314742014201
 7 -7.26137238933893 -1.40521988358836 -0.09682280098010
 6 -8.30997621992199 -2.21074701420142 -0.47355516141614
 6 -7.84922258975898 -3.64727891079108 -0.46436486548655
 6 -6.59774529652965 -3.55707002250225 -0.13376586868687
 6 -6.18930370857086 -2.21314746924692  0.04476609800980
 6 -8.68879922462246 -4.86359917881788 -0.80204975197520
 6 -5.36836337403740 -4.26538252355236  0.09027752765277
 8 -5.25377673947395 -5.56085873947395  0.07774380918092
 6 -4.23968737873787 -3.29703263736374  0.45552644464446
 6 -3.51225558975898 -3.69831591619162  1.75118629832983
 8 -3.67750140474047 -3.12042527532753  2.82073578887889
 8 -2.69940128802880 -4.72841099359936  1.53544163216322
 6 -2.04279691819182 -5.20520098939894  2.71628296529653
 6  2.82644642124212 -0.66348560626063 -1.18203357825783
 6  4.04725804820482 -0.45834968436844 -0.50092262096210
 6  5.07574118151815  0.32186551105110 -0.81306120632063
 6  5.06397381398140  1.28145268156816 -2.01086817791779
 6  6.37771422902290  0.23217202410241 -0.05329201540154
 6  7.69324706360636  0.02314043214321 -0.83979364806481
 6  8.89455853825383 -0.08863859735974  0.07001440724072
 6  10.10487138013801 -0.57551464976498 -0.73152954735473
 6  9.95739292549255 -2.02708204310431 -1.14700636213621
 6  11.43387450455046 -0.29947083768377  0.06444664336434
 6  12.75754292329233 -0.63935045094509 -0.66612715251525
 6  13.97658334613461 -0.02096886008601  0.14582179517952
 6  15.31910725472547 -0.20161277297730 -0.48821187148715
 6  15.65094919711971 -1.69562234803480 -0.74966224602460
 6  16.47952120612061  0.49495388148815  0.33493267796780
 6  17.84221992629263  0.64793291909191 -0.20179845974597
 6  18.89650505000500  1.39065091189119  0.76986934863486
 6  20.32985066486649  1.32884862946295  0.10926052965297
 6  20.43456368526853  2.15536118411841 -1.18987480888089
 6  21.24500237433744  1.92596696609661  1.20690739233923
 1 -4.05343560206021  3.70815919761976  1.35550007100710
 1 -10.28154190589059  3.82933051695170 -0.45033933653365
 1 -10.28682794459446 -2.42589264396440 -1.29651319881988
 1 -2.87661635233523 -1.15237490119012  1.99617685628563
 1 -2.37117675567557  1.76199468806881  1.06114048054806
 1 -1.79911363466347  1.54615010401040  3.43461367476748
 1 -2.85742052825283  2.46797625422542  3.18889345684568
 1 -3.31277225842584  0.57034140184018  3.66731061556156
 1 -2.11017354425443 -1.72348826922692 -0.24556954295430
 1 -2.28525272747275 -0.09199710841084 -0.93788889048905
 1 -0.26037313131313  0.44172209570957  0.92305455735574
 1 -0.32029798349835 -1.30215319071907  1.25903877977798
 1 -4.99865203290329  6.47691286638664  0.38548033023302
 1 -5.92167683798380  6.60197999679968  1.78141283048305
 1 -4.57944117291729  5.69136430783078  1.76547022572257
 1 -9.71699919881988  5.74809774587459  0.46496434093409
 1 -9.02690333073307  7.95241383088309 -0.28709811651165
 1 -7.26705174177418  7.68556912611261 -0.19482395299530
 1 -12.32309772257226  3.13166047134713 -2.20187648604861
 1 -13.46365157865787  1.98176381448145 -1.75444896859686
 1 -12.64983194459446  2.97721080648065 -0.44505600360036
 1 -12.31611413951395 -1.59743214141414 -1.02106231413141
 1 -13.39501550515052 -0.39265307830783 -1.19104646164616
 1 -13.24868533473347 -1.38112935213521 -3.38981197889789
 1 -12.24565473947395 -0.07999672557256 -3.47497507250725
 1 -11.40851419901990 -1.52010495449545 -3.59164828032803
 1 -8.93991488738874 -4.67164001230123 -2.06717429882988
 1 -8.24415811681168 -5.78361847004701 -0.76120034813481
 1 -9.59416158195820 -4.98741552855286 -0.33498175437544
 1 -3.44545467746775 -3.38519010351035 -0.31096774977498
 1 -1.38414950495050 -4.35721409870987  3.11821850885089
 1 -2.67190237763776 -5.38012865526553  3.58523574567457
 1 -1.51554298079808 -6.14289846694670  2.21168787168717
 1  2.99305397649765 -1.69532922282228 -1.45901997829783
 1  2.75522722292229  0.05732865126513 -2.26959897969797
 1  4.36783600790079 -1.08195620182018  0.39125150135013
 1  4.03154409070907  1.40088118441844 -2.25770911321132
 1  5.47382068046805  2.29667405760576 -1.64863921852185
 1  5.80910623342334  1.10491082128213 -2.87140844014401
 1  6.50957398069807  1.28821504920492  0.46773427112711
 1  6.37650099809981 -0.57403065196520  0.92560356745675
 1  7.48139188128813 -1.01165223692369 -1.34802893159316
 1  8.04362589358936  0.77115399189919 -1.58678882578258
 1  8.84160025722572  0.72098471497150  0.63564752725273
 1  8.70441826462646 -0.77533588898890  1.00060467906791
 1  10.31232294379438  0.15343010931093 -1.62134596519652
 1  9.12488898529853 -2.45713275757576 -1.68524348554856
 1  10.78026111081108 -2.21307782038204 -1.84667085308531
 1  10.03695116871687 -2.71998362096210 -0.32553464416442
 1  11.52987774997500  0.71754616211621  0.33325528892889
 1  11.41560196989699 -0.75857819591959  1.05066253925393
 1  12.67618335403540 -1.73234009540954 -0.72629096399640
 1  12.75093399939994 -0.05000552155216 -1.59256762056206
 1  13.87656916011601  1.15800905640564  0.43341000150015
 1  14.17056314661466 -0.56922936023602  1.16285145484548
 1  15.38383077517752  0.36599646004600 -1.64433409290929
 1  15.44752675367537 -2.06055278117812  0.26190859325933
 1  15.04728226002600 -2.04189238283828 -1.63153087348735
 1  16.81907996659666 -1.72554648324833 -1.03628573737374
 1  16.03258846854686  1.52425149784979  0.50978439943994
 1  16.44845654765477  0.09035263956396  1.39247217891789
 1  18.27952714461446 -0.18734569836984 -0.44976098369837
 1  17.80592067326733  1.01232249074908 -1.21063454735474
 1  18.67637632043204  2.64132603220322  0.85810091099110
 1  19.09345562296230  1.04842845414541  1.65157150875088
 1  20.69084915161516  0.34797123292329 -0.13855610521052
 1  19.76154298759876  3.11120010491049 -1.24173444294429
 1  21.45274138803880  2.43432931083108 -1.42955420942094
 1  20.05883671687169  1.38114951725173 -2.06462688598860
 1  21.41757177247725  1.42920222402240  2.18589803140314
 1  22.37098173867387  2.22302083328333  0.92076634283428
 1  21.05113764636464  2.99491316751675  1.52307823902390

