%nproc=3
%Mem=2GB
# td=(NStates=10) iop(3/107=0140000000,3/108=0140000000) CAM-B3LYP/6-31G(d,p) 

TD

0 1
12 -7.07660933023302  0.57005524622462  0.14623267186719
 6 -4.79830871197120 -2.00080219151915  0.51858749364937
 6 -4.72639194549455  2.78987331463146  1.22606606380638
 6 -9.36718130693069  3.08100049944994 -0.39934126712671
 6 -9.47212824042404 -1.74529470447045 -0.86737485248525
 7 -5.07281006260626  0.43948520902090  0.74949246964696
 6 -4.31724933023302 -0.74773539393939  0.85123702650265
 6 -2.87839880108011 -0.49623489558956  1.24849029022902
 6 -3.01542183138314  1.07488862136214  1.66934974137414
 6 -4.26939502620262  1.51814219461946  1.14033029422942
 6 -2.84110190119012  1.27233372067207  3.11537506360636
 6 -1.92178645954595 -0.70377438753875  0.08102742854285
 6 -0.52675092909291 -0.37895612701270  0.49638822172217
 6  0.46661604000400 -0.60057348944894 -0.61881353315332
 8  0.27009755945595 -0.87957936173617 -1.76404568486849
 8  1.73155018001800 -0.38631353815382 -0.19288350845085
 7 -7.15016262476248  2.59352075937594  0.38284344114411
 6 -6.03115024602460  3.31924287818782  0.89457744174417
 6 -6.40505849554956  4.70162079247925  0.95029279377938
 6 -7.70939153455345  4.83672355905591  0.44028093509351
 6 -8.15592614581458  3.55979627092709  0.17093743294329
 6 -5.41989777097710  5.79715080638064  1.19799632483248
 6 -8.44518373077308  6.13650871887189  0.44162418431843
 6 -8.01455065286529  7.31069715401540  0.01582732043204
 7 -9.06483151885188  0.67288376667667 -0.62397410271027
 6 -9.81840349934993  1.78988967156716 -0.69749487368737
 6 -11.20576531943194  1.50967195759576 -1.08289303890389
 6 -11.21584010471047  0.08165204250425 -1.28780804700470
 6 -9.92102198589859 -0.40990947904790 -0.91111041394139
 6 -12.33712195429543  2.36702898379838 -1.45440597149715
 6 -12.42566261196120 -0.82904396659666 -1.67688286548655
 6 -12.35612194419442 -1.09394327952795 -3.13773187858786
 7 -7.27818407050705 -1.42547190879088 -0.08354147284728
 6 -8.34006922922292 -2.30614655415542 -0.42020982688269
 6 -7.77963563106311 -3.66964114701470 -0.44027245624562
 6 -6.47559308130813 -3.58130244574457 -0.06288878097810
 6 -6.11777655585558 -2.21634778927893  0.12484410581058
 6 -8.63082342704270 -4.88702152105211 -0.91775132213221
 6 -5.30414695239524 -4.36475246054606  0.11645014491449
 8 -5.13289465126513 -5.60429308290829  0.20661669646965
 6 -4.09029243924392 -3.28418135223522  0.43092398439844
 6 -3.56189055325533 -3.68195428002800  1.85200638033803
 8 -3.76982063666367 -3.22432566536654  2.93725744104410
 8 -2.60619196709671 -4.67188534103410  1.65502359035904
 6 -2.16780941944194 -5.22311278057806  2.92356369336934
 6  2.73855763236324 -0.56733599129913 -1.31031640654065
 6  4.03805712811281 -0.39720356975698 -0.63060558925893
 6  5.02972658005801  0.38119144364436 -0.96935683588359
 6  5.08627604420442  1.11763629992999 -2.24697178827883
 6  6.38098455605560  0.41882068896890 -0.13069975617562
 6  7.49408714761476 -0.28937081898190 -0.89090875957596
 6  8.84069315171517 -0.10989072257226 -0.19137173137314
 6  10.15354624762476 -0.56187328562856 -0.79590598499850
 6  10.10308749494950 -2.08109744464446 -1.19645130663066
 6  11.32629374647465 -0.04662555315532 -0.07157695899590
 6  12.70155732473247 -0.20139665556556 -0.76727726752675
 6  13.94345003280328 -0.02444920812081  0.09175638863886
 6  15.30485582958296 -0.14613722542254 -0.47493054335434
 6  15.61499560176018 -1.65444823062306 -0.70787806760676
 6  16.40601385538554  0.45021940804080  0.43016220092009
 6  17.73687939223922  0.59228735453545 -0.17477575747575
 6  18.76651205070507  1.20191203800380  0.78305066676668
 6  20.08938661846184  1.27548329292929  0.20858046164616
 6  20.18896912581258  2.09138478647865 -1.10516633803380
 6  21.05290316441644  1.71705607500750  1.30104680628063
 1 -3.97449770827083  3.37722610431043  1.75978049904990
 1 -10.17498124982498  4.00593817771777 -0.67022132473247
 1 -10.21615087688769 -2.52156221092109 -1.05968951645165
 1 -2.45181387208721 -0.89779944364436  2.22794003260326
 1 -2.28537817581758  1.65218370697070  1.03830819731973
 1 -1.83044676797680  0.75091058005801  3.45988620202020
 1 -2.81080586678668  2.25414487108711  3.48350291779178
 1 -3.65663664486449  0.66562092979298  3.51398528302830
 1 -1.82801532843284 -1.70474639503950 -0.30639562556256
 1 -2.09960416261626  0.11832392369237 -0.56969207080708
 1 -0.46397349134913  0.71931985548555  0.61288354025403
 1 -0.08410436413641 -1.01632460786079  1.23152602850285
 1 -4.60977314501450  6.16481165626563  0.40409219141914
 1 -5.84192886318632  6.87557735653565  1.68690337953795
 1 -4.85476870567057  5.51900707210721  2.02026570527053
 1 -9.59009650855085  6.09247218331833  0.62207005150515
 1 -8.70266090649065  8.15108369786979  0.11369196249625
 1 -6.94373941054105  7.25284585378538 -0.28532300290029
 1 -12.16292170497050  3.14370167546755 -2.17290358875888
 1 -13.24881009450945  1.83067870597060 -1.62924644834483
 1 -12.59584654605461  2.99716280168017 -0.51657315531553
 1 -12.30783331143114 -1.69857225542554 -1.04322453035303
 1 -13.42153815741574 -0.24072788578858 -1.49994735173517
 1 -13.23918438463846 -1.55673691289129 -3.38222121982198
 1 -12.09893006700670 -0.15127385328533 -3.75994356935694
 1 -11.53496684428443 -1.78568151215121 -3.30895001050105
 1 -8.98953984988499 -4.52216506480648 -1.95151273267327
 1 -8.11703540454045 -5.83428353655366 -1.14099832793279
 1 -9.39090125592559 -5.05142192919292 -0.35123337953795
 1 -3.38031816381638 -3.30366195069507 -0.37988464146415
 1 -1.47225831583158 -4.62667104440444  3.33982066906691
 1 -2.95372055945595 -5.40589123152315  3.62840006210621
 1 -1.65650707720772 -6.23954813191319  2.48798550145015
 1  2.50351502260226 -1.59433912381238 -1.81683575987599
 1  2.54437613781378  0.35481840024002 -1.95303732353235
 1  4.23640286458646 -1.04648265446545  0.14568694489449
 1  4.04352528882888  1.39998109440944 -2.59155249754975
 1  5.58089138753875  2.12871726192619 -2.08015236983698
 1  5.82766808960896  0.70819114931493 -3.08431973127313
 1  6.57331035433543  1.41918814651465  0.08750624832483
 1  6.23328667666767  0.01078782988299  0.76434744184418
 1  7.12013575567557 -1.31386245794579 -1.00906503520352
 1  7.83089462046205  0.16633350985098 -1.81190133703370
 1  8.82693879107911  1.00452306880688 -0.09960599809981
 1  8.91468929172917 -0.55814416981698  0.83357797639764
 1  9.98921063256326 -0.05742097579758 -1.82550638123812
 1  9.29063555995600 -2.31596864116412 -1.92864782598260
 1  10.98458154285429 -2.21936844944494 -1.90980716671667
 1  10.06704417801780 -2.63030465306531 -0.28609069976998
 1  11.37366212841284  0.77389179667967  0.22960492389239
 1  11.38007841754175 -0.67441978007801  0.95545301830183
 1  12.56640237593759 -1.16509337073707 -1.37867620252025
 1  12.86065497149715  0.55818529752975 -1.54301266506651
 1  13.75376687988799  1.00458371387139  0.63336999749975
 1  13.85403149344934 -0.57927036433643  1.00754592429243
 1  15.52421481358136  0.36702656305631 -1.40482014151415
 1  15.56464846584659 -2.09352607850785  0.25381778417842
 1  14.87209474127413 -2.03151134473447 -1.41501922232223
 1  16.66134419301930 -1.72835676427643 -1.19317142594259
 1  16.07837304700470  1.39300837353735  0.88052147314732
 1  16.53706540854085 -0.08320471617162  1.36124905660566
 1  18.12367155905591 -0.35481244504450 -0.59218522612261
 1  17.54042412361236  1.20054131263126 -1.15583906780678
 1  18.31625030783078  2.11441334093409  1.25021012191219
 1  18.94538081548155  0.47089070037004  1.61811816341634
 1  20.47866793349335  0.22804924072407 -0.09655190479048
 1  19.60597743104310  3.02668165306531 -0.92669293879388
 1  21.19654576847685  2.36728260616062 -1.25855710971097
 1  19.64466529972997  1.75992739503950 -2.01435185848585
 1  20.88561857715771  1.28845814961496  2.27286672827283
 1  22.08152279277928  1.70626915811581  1.15371963816382
 1  20.80268280088009  2.87532120832083  1.43673960516052

