%nproc=3
%Mem=2GB
# td=(NStates=10) iop(3/107=0140000000,3/108=0140000000) CAM-B3LYP/6-31G(d,p) 

TD

0 1
12 -7.11374304360436  0.65680392109211  0.10839888848885
 6 -4.83502238333833 -1.96524863616362  0.53105874077408
 6 -4.86975628192819  2.89735406270627  1.23389684688469
 6 -9.40561515031503  2.96788918831883 -0.31916324932493
 6 -9.55176620422042 -1.78329850485049 -0.82458057305731
 7 -5.11684446604660  0.42497375787579  0.76908442884288
 6 -4.36685429072907 -0.71436205660566  0.83088499129913
 6 -2.92752371357136 -0.34368964106411  1.11427686888689
 6 -3.02375266446645  1.13039417191719  1.66315912231223
 6 -4.46925501220122  1.50895127552755  1.16840310151015
 6 -2.75811360236024  1.30160664796480  3.12293581968197
 6 -1.90551483238324 -0.52071608170817  0.12158148394839
 6 -0.47489574357436 -0.26697492889289  0.52967155005501
 6  0.48257763616362 -0.66481991409141 -0.52932458425843
 8  0.27423797349735 -1.00927233103310 -1.64933421372137
 8  1.79631665666567 -0.47177208400840 -0.03197741784178
 7 -7.10714832333233  2.68704011131113  0.36063121992199
 6 -6.06370350135014  3.39180013391339  0.89136712071207
 6 -6.50406839653965  4.85209583998400  0.80462822732273
 6 -7.84481507690769  4.82433231993199  0.43156006300630
 6 -8.16115666886689  3.42442273357336  0.11054139333933
 6 -5.58601438263826  5.97233832513251  1.44850137533753
 6 -8.72246145854585  5.91407647564756  0.30094011591159
 6 -8.27193639143914  7.19921600590059  0.10020575827583
 7 -9.07942297799780  0.58463494179418 -0.50771247654765
 6 -9.81969362836284  1.74274495709571 -0.62030715491549
 6 -11.14924966786679  1.47200819121912 -1.11436618621862
 6 -11.22043056375638  0.13578745604560 -1.26638590479048
 6 -9.88189807350735 -0.40443893199320 -0.97592689558956
 6 -12.19007724982498  2.45797807870787 -1.38196872777278
 6 -12.41869191489149 -0.79242030423042 -1.67497267446745
 6 -12.34618095009501 -1.26599048424842 -3.10160826622662
 7 -7.27049330143014 -1.37934729632963 -0.18261137983798
 6 -8.26458168046805 -2.23114905440544 -0.64368217411741
 6 -7.84382204970497 -3.59650383328333 -0.58100652965297
 6 -6.47720324232423 -3.46002031753175 -0.19678217031703
 6 -6.15059983818382 -2.13088924342434 -0.00373875247525
 6 -8.64864520922092 -4.77587040594059 -0.92063161016102
 6 -5.17190372807281 -4.29568555385539  0.08617711761176
 8 -5.08478984078408 -5.48834148774877  0.02485852065207
 6 -4.21517492749275 -3.30226316041604  0.50827171917192
 6 -3.54092845704570 -3.64838092269227  1.85054623432343
 8 -3.73318697329733 -3.17470070287029  2.88398211351135
 8 -2.77665901380138 -4.78864701720172  1.77757584558456
 6 -2.29733237173717 -5.30618108740874  2.96121745874587
 6  2.78657243384338 -0.78217747544754 -1.08023339823982
 6  4.23270659305931 -0.56832068146815 -0.59534206290629
 6  5.17984159155916  0.26165949044905 -1.03618351855186
 6  5.00543796039604  1.25958049434943 -2.14638172927293
 6  6.40137659525953  0.32665147204720 -0.13591027722772
 6  7.62484022292229 -0.06252813471347 -0.97356702540254
 6  8.87438652105211 -0.19746948044804 -0.13592618681868
 6  10.10163105610561 -0.67707480578058 -0.80437683208321
 6  10.12964015021502 -2.06295563046305 -1.25493715521552
 6  11.39375049214921 -0.27776866746675 -0.04208400970097
 6  12.72748991799180 -0.42481899779978 -0.75196573637364
 6  14.01143683148315 -0.07782454565457  0.21379859285929
 6  15.34207955195520 -0.20213282498250 -0.51088413871387
 6  15.72145624782478 -1.69780256605661 -0.71481876167617
 6  16.38759201320132  0.45135952205221  0.41581076577658
 6  17.80251595589559  0.47591571737174 -0.14531281118112
 6  18.81872727222722  1.19235108190819  0.66235859755976
 6  20.24307198699870  1.34622036663666  0.11723132673267
 6  20.33020324922492  2.40661630963096 -1.09646546794679
 6  21.29457733183319  1.81170553995400  1.17010371197120
 1 -4.15646590509051  3.55864424612461  1.61324584558456
 1 -10.00996474817482  3.77370495439544 -0.45199950255025
 1 -10.43235249704970 -2.66671672637264 -1.21319486698670
 1 -2.58862755345535 -0.94729439313931  2.00637787638764
 1 -2.09461909990999  1.71573006160616  1.05401976847685
 1 -1.85265898919892  1.13864935393539  3.32024223762376
 1 -2.87718250445045  2.38910836743674  3.43812838033803
 1 -3.49699068026803  0.79265363306331  3.75828971347135
 1 -1.99595212211221 -1.51709763016302 -0.28192317831783
 1 -2.23308751095109  0.28041013231323 -0.68141324292429
 1 -0.32782987698770  0.88681660516052  0.66691894379438
 1 -0.24437039073907 -0.63128610401040  1.61591446734673
 1 -5.29060122782278  6.45885106020602  0.66133791599160
 1 -6.17978264856486  6.72898269706971  1.72556724592459
 1 -4.82260548934893  5.62725789718972  2.08045172387239
 1 -9.83478097699770  5.63813674977498  0.38984682918292
 1 -8.87763840424042  7.93393198269827  0.09394998829883
 1 -7.21436647324732  7.20095066426643 -0.10335480608061
 1 -11.92842825562556  2.95409271457146 -2.42849914831483
 1 -13.23069828332833  2.17769340744074 -1.17022054575458
 1 -12.03646060746075  3.38956204160416 -0.54766626462646
 1 -12.43954648274828 -1.74197659585959 -0.91214142204221
 1 -13.34312031563156 -0.48136194919492 -1.59321667866787
 1 -13.12916338253825 -1.79184042324232 -3.39395239293929
 1 -12.27491766576658 -0.40149887578758 -3.86279385438544
 1 -11.50752410001000 -1.93020596459646 -3.20543965946595
 1 -9.05350624652465 -4.79943279157916 -1.93894147554755
 1 -8.12654635563556 -5.67772788098810 -0.53170739883988
 1 -9.70645281108111 -4.95795258225823 -0.62558081428143
 1 -3.46521665366537 -3.31076266076608 -0.33871052405240
 1 -1.47274836483648 -4.57606598389839  3.27764445144514
 1 -3.06992217961796 -5.28440908330833  3.64397161926193
 1 -1.85087651415142 -6.36665084218422  2.88746544944494
 1  2.53315798689869 -1.89840953085309 -1.16297037333733
 1  2.57131883208321 -0.21969905150515 -2.02310433023302
 1  4.40648987328733 -1.03878188438844  0.39374175037504
 1  3.91505244154415  1.75222631893189 -2.28901224352435
 1  5.77488078647865  2.15537992819282 -1.87582193679368
 1  5.45235055785578  0.80993132333233 -3.17140844014401
 1  6.64887791109111  1.47683391109111  0.09899739743974
 1  6.32630597859786 -0.26302955185519  0.87966897399740
 1  7.36605034713471 -1.09782085378538 -1.48975310401040
 1  7.71659319031903  0.53786066256626 -1.89028917581758
 1  8.95595169236924  0.80821343784378  0.17959192169217
 1  8.70697852065206 -0.92059041444144  0.70590520912091
 1  10.31071278277828  0.13500826712671 -1.73133696429643
 1  9.21426792319232 -2.11315836013601 -1.95623058425843
 1  11.15933901860186 -2.42249876247625 -1.48928511451145
 1  9.85848332193219 -2.69898152075208 -0.33762585328533
 1  11.46815157735774  0.81421582908291  0.38984094749475
 1  11.42985339503950 -0.87428976707671  0.93588106110611
 1  12.80241597729773 -1.39571643304330 -1.29442777767777
 1  12.80276918291829  0.20167964696470 -1.51786014981498
 1  13.81527303050305  0.94962821832183  0.57518417891789
 1  13.76799288958896 -0.69641207850785  1.16460162986299
 1  15.27422981508151  0.29009887028703 -1.48572823232323
 1  15.99051105210521 -2.05431215711571  0.32050445284528
 1  15.12066959875988 -2.42725091869187 -1.34331205160516
 1  16.65590364896490 -1.65375930453045 -1.31843395219522
 1  16.10009521922192  1.55025409810981  0.49674309530953
 1  16.54349605160516 -0.06779317501750  1.41929486118612
 1  18.19648884078408 -0.43817078087809 -0.48342435003500
 1  17.79937001820182  1.22644390289029 -1.10810429432943
 1  18.35964464726473  2.27800970057006  1.03951905280528
 1  18.89662593999400  0.34947855915592  1.40023637523752
 1  20.37361742844284  0.35623205900590 -0.14707695729573
 1  19.96669350265027  3.42746173107311 -0.61827209670967
 1  21.22406852075208  2.30368624652465 -1.64429568356836
 1  19.49601043424342  2.15147654995500 -1.88928935223522
 1  21.22406242154215  1.21244054785479  2.08659810141014
 1  22.34491913241324  1.56708523972397  0.75843010921092
 1  21.38706123872387  2.93557723392339  1.33798973017302

