%nproc=3
%Mem=2GB
# td=(NStates=10) iop(3/107=0140000000,3/108=0140000000) CAM-B3LYP/6-31G(d,p) 

TD

0 1
12 -7.00814248354835  0.49647788848885  0.08876692529253
 6 -4.79743862496250 -2.02904501580158  0.50438607350735
 6 -4.81442074837484  2.82422674997500  1.30459391659166
 6 -9.35504009280928  3.14297669706971 -0.39511084408441
 6 -9.49985101270127 -1.67018719371937 -1.02352046704670
 7 -5.15326810841084  0.35705696619662  0.83953147354735
 6 -4.38052565786579 -0.77049767016702  0.95420732353235
 6 -2.95986694789479 -0.48837410951095  1.35776121732173
 6 -3.08204849404941  1.03261439393939  1.71072387878788
 6 -4.42621070777078  1.47399778017802  1.26425268646865
 6 -2.92893068406841  1.28132461976198  3.25195872197220
 6 -1.96024030493049 -0.67312132223222  0.28188751455146
 6 -0.56227448144814 -0.54316254765477  0.69074765766577
 6  0.47589696809681 -0.75759919201920 -0.38827047884788
 8  0.15576612631263 -1.06893829762976 -1.60557983828383
 8  1.69133615861586 -0.51396630343034 -0.05181940204020
 7 -7.08841645014502  2.57508891619162  0.29163432023202
 6 -6.03635076607661  3.23217417131713  0.90100808480848
 6 -6.33900188988899  4.74661529192919  0.84516228072807
 6 -7.62281287668767  4.95005489218922  0.39247615461546
 6 -8.10186073927393  3.48794908620862 -0.00928058885889
 6 -5.44276005720572  5.80857194849485  1.33411993719372
 6 -8.48491770417042  6.12185725372537  0.22406242814281
 6 -8.04237343514351  7.41374745904590  0.12187792549255
 7 -9.05666070177018  0.63697017531753 -0.62466417171717
 6 -9.82970462946295  1.77744842744274 -0.67293241744174
 6 -11.22022676557656  1.54105509590959 -1.08976372597260
 6 -11.19517803850385  0.15923980128013 -1.29021828802880
 6 -9.93235311901190 -0.37677616571657 -0.96344564746475
 6 -12.32999124122412  2.61082336323632 -1.42946347724773
 6 -12.21360140584058 -0.73654471667167 -1.86321149834983
 6 -12.16335266726673 -0.93287717291729 -3.38357646304630
 7 -7.14302055415542 -1.38641800340034 -0.26328944764476
 6 -8.29195441774177 -2.21140708020802 -0.59943774967497
 6 -7.85033270077008 -3.66058024092409 -0.52897132613261
 6 -6.56298182018202 -3.51739605510551 -0.01958445054505
 6 -6.20196497469747 -2.22980913541354  0.06719834123412
 6 -8.73033337803780 -4.74425724462446 -0.99811935893589
 6 -5.35022155985599 -4.37567355265527  0.21506000590059
 8 -5.17493885568557 -5.61214386798680 -0.00539450465047
 6 -4.16961037103710 -3.34007694179418  0.53011390339034
 6 -3.73713807800780 -3.77491357595760  1.92387356705671
 8 -3.88811246584658 -3.18087131993199  3.02163587888789
 8 -2.85281662956296 -4.78537669016902  1.83294138213821
 6 -2.14348698719872 -5.11743221252125  3.07595893289329
 6  2.68382215881588 -0.79892915061506 -1.15823119801980
 6  4.08837215961596 -0.61340518991899 -0.53179570827083
 6  5.07920152755276  0.20825414991499 -1.01462136233623
 6  4.98649606620662  1.16737127342734 -2.10990808190819
 6  6.34909136673667  0.40794960186019 -0.14810149634964
 6  7.65045278417842 -0.09897177907791 -0.92615228392839
 6  8.89610869326933 -0.04574430793079 -0.12779537373737
 6  10.24914580758076 -0.59140623892389 -0.84974136853685
 6  10.02060924712471 -2.04901423632363 -1.44126578807881
 6  11.33249436653665 -0.38734962556256  0.05615581428143
 6  12.80567773677368 -0.50592710861086 -0.71806234603460
 6  14.02470815861586 -0.17406416961696  0.13447066006601
 6  15.42031737573757 -0.15317792949295 -0.62983603390339
 6  15.87204130633063 -1.51543432923292 -0.94307158695870
 6  16.42781603560356  0.48429281538154  0.39106829152915
 6  17.83442914721472  0.68202632843284 -0.33081136103610
 6  18.80530593009301  1.35244709150915  0.68055041674167
 6  20.21276895669567  1.51275702030203  0.24691429502950
 6  20.22638286718672  2.16344199219922 -1.23444926632663
 6  21.13780165426543  2.14816918631863  1.26067276887689
 1 -3.99390964946495  3.40844922662266  1.78713323432343
 1 -10.07245099679968  3.93395097899790 -0.45319962256226
 1 -10.30700996279628 -2.32024207890789 -1.04938848634863
 1 -2.86162485318532 -1.24537420112011  2.19631687028703
 1 -2.38002764076408  1.68744723332333  1.31036540304030
 1 -1.79070279357936  1.03822931193119  3.52663287668767
 1 -3.02694748094809  2.38328778537854  3.49665423292329
 1 -3.53471445264526  0.74433880158016  3.89188307280728
 1 -2.08753128002800 -1.57852377277728 -0.36275126112611
 1 -2.20893509570957  0.04761685298530 -0.47497259885989
 1 -0.35430252425242  0.23181110461046  1.37077932983298
 1 -0.40545649934993 -1.26402937833783  1.58277115301530
 1 -4.50296246394640  6.25008018311831  0.68220000220022
 1 -6.13400807110711  6.49183898269827  1.75265995519552
 1 -5.00080330913091  5.32397756915692  2.24830850955095
 1 -9.60807830673067  6.14394733083308  0.51222906740674
 1 -8.68392903330333  8.08193678317832  0.35981657495750
 1 -7.03429846644664  7.67905847504750 -0.06935140574057
 1 -12.07334274707471  3.04339164446445 -2.41870816921692
 1 -13.48046325982598  1.98325396349635 -1.66059958365837
 1 -12.43930089148915  3.45901898729873 -0.59941143914391
 1 -11.93729625772577 -1.74138653685368 -1.23545375327533
 1 -13.19506551015102 -0.41030484348435 -1.43140049704970
 1 -12.86729719591959 -1.52063330253025 -3.96659965766577
 1 -12.39847002100210  0.04010528462846 -3.97954552955296
 1 -11.06068941654165 -1.25769871387139 -3.57893700920092
 1 -9.11168206410641 -4.66740958925893 -2.02655023642364
 1 -8.36758045904591 -5.73205331353135 -0.58531275937594
 1 -9.76566873267327 -4.77864465146515 -0.55976423262326
 1 -3.46726685868587 -3.55761734623462 -0.19718637163716
 1 -1.76999808980898 -4.20181855915592  3.61508819581958
 1 -2.71933712111211 -5.83056369876988  3.60862808490849
 1 -1.34624605110511 -5.83628780588059  2.42876957985799
 1  2.65151982308231 -1.79638932883288 -1.54103818011801
 1  2.43400510071007  0.01251416981698 -1.91965398519852
 1  4.25563478777878 -1.27172517871787  0.41112348854886
 1  4.06560749704970  1.33337443374337 -2.55949929222922
 1  5.43756705510551  2.22323671387139 -1.81537589218922
 1  5.76132145494549  0.84561489168917 -2.95402670197020
 1  6.72946596989699  1.32575880358036 -0.15598810111011
 1  6.16707005500550  0.07844459555956  0.78027903500350
 1  7.56296003810381 -1.14311538323832 -1.34939906860686
 1  7.59076060706071  0.53362023852385 -1.61115126202620
 1  9.32615871307131  0.86369898639864  0.17738170067007
 1  8.57862568536854 -0.74808316371637  0.65373999259926
 1  10.47503921542154  0.18574334063406 -1.66652048264826
 1  9.13965046144614 -2.07672471677168 -2.26303126432643
 1  10.94687777247725 -2.19319583218322 -1.74850103610361
 1  9.71705917951795 -2.70833245584558 -0.64377646834683
 1  11.52797755995599  0.51935634313431  0.42175413881388
 1  11.23116352605260 -1.16408874697470  0.75413288628863
 1  12.76342207790779 -1.55726258765877 -1.03393172807281
 1  12.83706261226123  0.16751623062306 -1.65618398219822
 1  13.96564806800680  0.91516477197720  0.56233289378938
 1  14.01825791609161 -0.64018645594559  1.02732790249025
 1  15.25114750685069  0.29001886228623 -1.61204086358636
 1  15.76279828082808 -2.11305803170317  0.23774617701770
 1  15.24959249104911 -2.30311850545054 -1.54516223662366
 1  16.96029408800880 -1.56545047364736 -1.46043815261526
 1  16.06870207990799  1.42006107880788  0.82423584458446
 1  16.34153585558556 -0.17938433413341  1.35241817351735
 1  18.07408660056006 -0.34699166296630 -0.65577158475848
 1  17.45695577677768  1.45912717121712 -1.13324680858086
 1  18.41322000480048  2.33300520012001  0.57401250215022
 1  18.87114339173917  0.93667727902790  1.70746709830983
 1  20.46786685338533  0.39764620042004 -0.07026927652765
 1  20.03432026532654  3.24483346824682 -1.11274154365437
 1  21.09804591849185  2.21893777167717 -1.84995624962496
 1  19.31441227442744  1.61569297159716 -1.80956137943794
 1  21.34133414871487  1.43545284908491  2.19620906250625
 1  22.18792343284328  2.25455398659866  1.03029729592959
 1  20.84244677727773  3.21718539473947  1.73056898809881

