%nproc=3
%Mem=2GB
# td=(NStates=10) iop(3/107=0140000000,3/108=0140000000) CAM-B3LYP/6-31G(d,p) 

TD

0 1
12 -7.17228889818982  0.67209545024502  0.03371141974197
 6 -4.80985986708671 -1.96911902320232  0.52720835573557
 6 -4.82849215551555  2.85779010631063  1.23598705590559
 6 -9.43554814361436  3.05632803220322 -0.31357269026903
 6 -9.50126115371537 -1.81232140714071 -0.92512062706271
 7 -5.09992277387739  0.42088334883488  0.72441996239624
 6 -4.31321892719272 -0.70128074847485  0.92868477127713
 6 -2.97516847804780 -0.36378165026503  1.30655609680968
 6 -3.04047433663366  1.23251438393839  1.71576438283828
 6 -4.46080416711671  1.52282266266627  1.15625188638864
 6 -3.00919871087109  1.34986147344734  3.15813934003400
 6 -1.97794207510751 -0.68092210231023  0.17015634143414
 6 -0.51346960096010 -0.53913214461446  0.56445502840284
 6  0.49713909230923 -0.75758919101910 -0.52913456525653
 8  0.19574012371237 -1.09858126192619 -1.68446772707271
 8  1.65462248724872 -0.40768567536754 -0.22782700280028
 7 -7.19231684018402  2.64798620592059  0.44104926172617
 6 -6.13971110211021  3.40212116601660  0.82830081408141
 6 -6.48854684438444  4.82078270867087  0.81915968046805
 6 -7.75053564896490  4.90091997869787  0.38264517151715
 6 -8.20977153035303  3.45567585888589  0.20323066226623
 6 -5.59795557675768  5.94028511981198  1.21992851805180
 6 -8.66625583798380  6.08098316631663  0.31712173407341
 6 -8.29713891169117  7.35463154745475  0.10257599529953
 7 -9.09206424212421  0.66770324862486 -0.55584729002900
 6 -9.89859151815181  1.78725940854085 -0.57032215641564
 6 -11.19906464936494  1.44459544994499 -1.10959570917092
 6 -11.24895341604160  0.08471234853485 -1.15385465166517
 6 -9.85483536723672 -0.42080056815682 -0.79939924282428
 6 -12.42928117021702  2.38915119601960 -1.34689522042204
 6 -12.29499954565457 -0.71891295349535 -1.77751292849285
 6 -12.30956728872887 -0.99047293249325 -3.30626873227323
 7 -7.14718097019702 -1.38401776337634 -0.26806992569257
 6 -8.21103632593259 -2.19801574107411 -0.65205301120112
 6 -7.78396606410641 -3.62824700760076 -0.53224165316532
 6 -6.49790531253125 -3.45647996349635 -0.05054754685469
 6 -6.10693547174717 -2.14272042654265  0.06018764016402
 6 -8.62024236893689 -4.79619243814381 -0.73377292429243
 6 -5.31295783348335 -4.31595758105811  0.00156865676568
 8 -5.25540690249025 -5.61804445804580  0.00021605640564
 6 -4.10364377437744 -3.34860779487949  0.47649854185419
 6 -3.47528189238924 -3.76964304890489  1.84082526222622
 8 -3.64035769036904 -3.02380561336134  2.79593330863086
 8 -2.81186253415342 -4.88440659315932  1.70518860686069
 6 -2.21720435893589 -5.34453492279228  2.89758109510951
 6  2.75102887948795 -0.70997025472547 -1.11986736163616
 6  4.02239556195620 -0.45351920132013 -0.38390091879188
 6  5.09335294269427  0.24664798929893 -0.77235713591359
 6  5.12938035463546  1.20038457475748 -2.08680577167717
 6  6.40721717931793  0.21408021492149 -0.07770445664566
 6  7.66952469136914 -0.28351023292329 -0.88852852155216
 6  8.91514059645965 -0.14806453995400 -0.05640823502350
 6  10.21482237523752 -0.59926702500250 -0.82862925732573
 6  10.14166135233523 -2.09309864476448 -1.06063772527253
 6  11.52966408350835 -0.16789768036804 -0.08377817911791
 6  12.78501567056706 -0.45210172607261 -0.78429896969697
 6  13.95757144494450 -0.07197396059606  0.08522573557356
 6  15.35957130113011 -0.24002661436144 -0.66854990529053
 6  15.69237333953395 -1.60484327012701 -1.03417069686969
 6  16.46535978997900  0.35993037913791  0.33421260596060
 6  17.93437914221422  0.51217934373437 -0.22470074997500
 6  18.82429782928293  1.30800264706471  0.67805016671667
 6  20.30609828962896  1.36133187778778  0.16086569016902
 6  20.48247847674767  2.33578922692269 -1.07458327972797
 6  21.12096997109711  1.97784215361536  1.34104080568057
 1 -4.12387264576458  3.29882826452645  1.62752727372737
 1 -10.03569732143214  3.91114869876988 -0.52839714231423
 1 -10.15566482828283 -2.55857591229123 -1.23514706220622
 1 -2.73852254295430 -0.93826349004900  2.32691993059306
 1 -2.27757739573957  1.73357184578458  1.21318568506851
 1 -2.11282500580058  1.18688417741774  3.79441965536554
 1 -3.37718250445045  2.17582703930393  3.75431999949995
 1 -3.79600058125813  0.69719408710871  3.60014389888989
 1 -2.07542006890689 -1.84090001040104  0.03301831583158
 1 -2.14695889808981 -0.06669457815782 -0.68017311891189
 1 -0.32386948094809  0.47026494999500  1.08733098499850
 1 -0.13385933963396 -1.34575755115512  1.24928780468047
 1 -5.22279444714471  6.39682485758576  0.12705448764876
 1 -6.11610628092809  6.77773757255726  1.83631832103210
 1 -4.49816304510451  5.54350952235223  1.54032771147115
 1 -9.67259475837584  5.95188812491249  0.64795263976398
 1 -9.07604824522452  8.09616820632063  0.10887148044804
 1 -7.30574561116112  7.77172774197420 -0.26161063166317
 1 -12.12415782858286  2.98710601590159 -2.29495579397940
 1 -13.19810502400240  1.63898953705371 -1.76496001970197
 1 -12.75458241964196  2.70598368376838 -0.43296479447945
 1 -12.12725525362536 -1.77941033923392 -1.12531273917392
 1 -12.98127413101310 -0.29211302430243 -1.38737609460946
 1 -13.12356282248225 -1.55289652885288 -3.44545754345435
 1 -12.20816099009901  0.03659493359336 -3.71392896789679
 1 -11.38872221982198 -1.72350529452945 -3.60623973947395
 1 -8.92915381128113 -4.78180102840284 -1.65375295669567
 1 -7.86745044604460 -5.67544765296530 -0.49055328342834
 1 -9.44483664946494 -4.67770455745575  0.05892763656366
 1 -3.34104423642364 -3.62006359085909 -0.37301395439544
 1 -1.27562865286529 -4.74482285958596  3.10098678567857
 1 -3.06627181458146 -5.46790743314331  3.69843706580658
 1 -1.94609603610361 -6.47462163926393  2.69708641154115
 1  2.85866053715372 -1.79039872977298 -1.41703577987799
 1  2.62263396359636 -0.09205628722872 -1.95531755155516
 1  3.95048427272727 -1.01437944414441  0.61325370157016
 1  4.16246718301830  1.32515361166117 -2.33649699199920
 1  5.48198149654966  2.25295968616862 -1.81631598619862
 1  5.66827215001500  0.72564289448945 -2.95975727502750
 1  6.89914293759376  1.16505273297330  0.23170066776678
 1  6.24812816081608 -0.30332358125813  0.86030703780378
 1  7.43851759385939 -1.28313938563856 -1.22960708940894
 1  7.92551408240824  0.21296817331733 -1.82573272017202
 1  9.11474757195720  1.01625424192419  0.22337630013001
 1  8.93594141694169 -0.59686804220422  0.85976059465947
 1  10.22041375287529  0.03161792809281 -1.77039086968697
 1  9.24842133853385 -2.69987703200320 -1.61221618281828
 1  11.19055213991399 -2.69244575717572 -1.24058024402440
 1  10.04394186778678 -2.44448607120712 -0.00725281598160
 1  11.51500626282628  1.00989539703970  0.12316427982798
 1  11.61796220592059 -0.61203354145415  0.86034350735074
 1  12.97360309600960 -1.48307516891689 -1.20662899779978
 1  12.87506641264127  0.25919539853985 -1.64500286408641
 1  13.89743124632463  0.97335059055906  0.39726638713871
 1  13.95468155845585 -0.64410684798480  0.97275244494449
 1  15.43914630673067  0.41312117251725 -1.53521318081808
 1  15.65562756375638 -2.02759948584858 -0.11004860246025
 1  14.94465199699970 -2.08395658925893 -1.68005572597260
 1  16.90658871747175 -1.76260018861886 -1.29840194899490
 1  16.06703191289129  1.39861893459346  0.74002742374237
 1  16.43333503550355 -0.31554795049505  1.17945087678768
 1  18.26398559045905 -0.40122708650865 -0.45113112071207
 1  17.87280736193619  0.93510476897690 -1.14393787768777
 1  18.39212789558956  2.18816071567157  1.02763786468647
 1  18.84408068546854  0.53494710601060  1.48003435503550
 1  20.91511157785779  0.55225166096610 -0.13282553215322
 1  20.23912074537454  3.50144912981298 -0.98048831833183
 1  21.47328344224422  2.65339121702170 -1.24278553255325
 1  19.94196502970297  1.97573897619762 -2.02632305560556
 1  20.97675769106911  1.21886118991899  2.18741818341834
 1  22.23247788828883  2.32438096929693  1.17918218441844
 1  20.68675120772077  2.99081275747575  1.49509544074407

