%nproc=3
%Mem=2GB
# td=(NStates=10) iop(3/107=0140000000,3/108=0140000000) CAM-B3LYP/6-31G(d,p) 

TD

0 1
12 -7.23508517781778  0.56715495619562  0.11643969256926
 6 -4.72652153325333 -1.91474358565857  0.52331796669667
 6 -4.92240154645465  2.83698802610261  1.21752520972097
 6 -9.47760234903490  3.05067746714671 -0.39823115611561
 6 -9.56899792739274 -1.81330150515052 -0.80612872787279
 7 -5.15958874047405  0.44785604610461  0.72981050145015
 6 -4.36853445874587 -0.59276989738974  0.68556045884588
 6 -2.86599756095610 -0.28372364446445  1.26833227442744
 6 -3.12454274347435  1.22814394689469  1.67856066246625
 6 -4.56447453415342  1.42922330273027  1.15120138133813
 6 -3.10019781078108  1.31858834613461  3.29424295039504
 6 -1.87848212911291 -0.48219222932293  0.15454478027803
 6 -0.50651890589059 -0.52992122352235  0.58482706560656
 6  0.50729010741074 -0.42734616671667 -0.60576222802280
 8  0.14961551125113 -0.73443484728473 -1.76668594889489
 8  1.75957298229823 -0.30450535733573 -0.14331855195520
 7 -7.18353596209621  2.48384979227923  0.36600175697570
 6 -6.15344247524752  3.23870482438244  0.78265624962496
 6 -6.56801479117912  4.72548317871787  0.85956372087209
 6 -7.81150174557456  4.85456534323432  0.40357726472647
 6 -8.29164971817182  3.47776806810681  0.06226656585659
 6 -5.71982776397640  5.83381447274727  1.45259178437844
 6 -8.64217342974298  6.02216728472847  0.34917493939394
 6 -8.29302850065007  7.32787887218722  0.13474921262126
 7 -9.17914294999500  0.63940041834183 -0.51135284058406
 6 -9.91304296329633  1.71627230983098 -0.70105522972297
 6 -11.23085782868287  1.40976196659666 -1.14237898749875
 6 -11.26567508820882  0.01729560686069 -1.24945421162116
 6 -10.01274115781578 -0.50485897399740 -0.83148245114511
 6 -12.31415965806581  2.46723900480048 -1.36361689258926
 6 -12.43228327402740 -0.81669273147315 -1.63354853205321
 6 -12.15353168516852 -1.23335722092209 -3.14509261466147
 7 -7.26059231133113 -1.47382674427443 -0.14869798849885
 6 -8.26928215051505 -2.27114305380538 -0.49696750265026
 6 -7.82344001150115 -3.62274645754575 -0.60329875887589
 6 -6.47925344734474 -3.55072938843884 -0.10211270337034
 6 -6.19134391259126 -2.23935008950895  0.08411003240324
 6 -8.64870521522152 -4.90004282318232 -1.05234478147815
 6 -5.25014155185519 -4.33478946424643  0.14596309620962
 8 -5.03020438223822 -5.54115676927693  0.30440647544754
 6 -4.00778418841884 -3.26851978607861  0.49853074507451
 6 -3.50133449764976 -3.50700678527853  1.81012219191919
 8 -3.67768142274227 -2.96793002580258  2.85286900220022
 8 -2.55130647854785 -4.61422957545755  1.67698578657866
 6 -1.90536317481748 -5.01471194049405  2.96033737073707
 6  2.81033481008101 -0.58120737843784 -1.16639201410141
 6  4.09200252265227 -0.42084593399340 -0.55190771947195
 6  5.13547715511551  0.37241056555656 -0.95074497469747
 6  5.05181259785979  1.28630316661666 -2.14400149124912
 6  6.46479293689369  0.41839064596460 -0.25933261946195
 6  7.50525826472647 -0.23696557845785 -0.99153882258226
 6  8.93033211561156 -0.19704943844384 -0.17236983118312
 6  10.17194808780878 -0.64624172247225 -0.91950834523452
 6  10.14756194239424 -2.11646098099810 -1.32659432093209
 6  11.36280739783978 -0.43834472507251 -0.05726552785279
 6  12.76371354035403 -0.59302581848185 -0.67749828962896
 6  13.93142883068307 -0.15584234743474  0.09531674467447
 6  15.36958230223022 -0.22510512221222 -0.61310436073607
 6  15.87693179537954 -1.60614340014001 -0.98679595939594
 6  16.47791104510451  0.33733811991199  0.34348353305331
 6  17.85838154245425  0.49029715551555 -0.14729300920092
 6  18.82770817031703  1.28171001780178  0.81476383808381
 6  20.28277595739574  1.29276502110211  0.20782038563856
 6  20.61641187008701  2.16013166116612 -0.97954377577758
 6  21.16696457055706  1.73618798819882  1.42027872947295
 1 -4.19401966046605  3.38633701540154  1.61202572357236
 1 -10.16148990069007  3.89170675457546 -0.56936123872387
 1 -10.36375563736373 -2.45343539823982 -1.01124467196720
 1 -2.88538722942294 -0.92976263996400  2.21700893949395
 1 -2.41125076307631  2.08703719231923  1.08209257575758
 1 -2.11033475677568  1.15597108610861  3.81291150455046
 1 -3.42633741994199  2.34510396699670  3.45332990049005
 1 -3.63106408760876  0.57973234093409  3.80257414191419
 1 -1.98642116901690 -1.53261918231823 -0.26526151215121
 1 -1.95374957715772  0.32163425472547 -0.74142924452445
 1 -0.07225431943194  0.29735765926593  1.15868812071207
 1 -0.40138609230923 -1.46430940634063  1.11281415731573
 1 -4.91438360606061  6.20602577767777  0.72641442364236
 1 -6.14694936523652  6.88074787358736  1.69478416761676
 1 -4.96924015281528  5.44755992739274  2.18897257595760
 1 -9.80017751665167  5.66876981308131  0.52188003250325
 1 -9.03006364676468  8.02985157465747  0.27966856015602
 1 -7.32242727932793  7.55011558075808 -0.13042751335134
 1 -12.01364677747775  3.25935324062406 -2.06360265866587
 1 -13.30664587808781  1.93572921102110 -1.66843036673667
 1 -12.46616357775778  3.30646373177318 -0.55162666066607
 1 -12.57156968506851 -1.84888728692869 -1.14032424032403
 1 -13.40116612021202 -0.20053386638664 -1.56034339133913
 1 -12.69248971517152 -2.08757999719972 -3.50144314201420
 1 -12.35853602760276 -0.40636936283628 -3.94645222022202
 1 -11.12544589218922 -1.46469941394139 -3.18362747824782
 1 -9.28939983588359 -4.86484933323332 -1.96121370277028
 1 -7.89796349734973 -5.64635474367437 -1.14399862796280
 1 -9.45092725852585 -5.04383117011701 -0.32300055625563
 1 -3.29611974397440 -3.53722530703070 -0.32699935293529
 1 -1.38646973697370 -4.10690906820682  3.43018970597060
 1 -2.77968315571557 -5.41062170457046  3.60188741084108
 1 -1.13433485998600 -5.88150232733273  2.61763846674667
 1  2.87772244334433 -1.62313200310031 -1.49927400370037
 1  2.80012171237124  0.10519343774377 -1.98529054885489
 1  4.30824004830483 -0.90698870507051  0.35713809000900
 1  4.09512044834483  1.61637273357336 -2.48664200650065
 1  5.34595789418942  2.32419680988099 -2.08093244784478
 1  5.62400772357236  0.91865219541954 -2.95823712301230
 1  6.68557158045805  1.36791301900190 -0.22298480078008
 1  6.35662901090109  0.11047779887989  0.83880488758876
 1  7.32883662576258 -1.15693676537654 -1.27931205990599
 1  7.75358688968897  0.35963283978398 -1.75305545244524
 1  9.32146824402440  0.90884350085009  0.11067503000300
 1  8.77007483028303 -0.74105246064606  0.66153077167717
 1  10.40316202770277 -0.05007024072407 -1.71110494109411
 1  9.30949744614461 -2.60280732503250 -1.79138409960996
 1  11.03058614331433 -2.58614512711271 -1.83344953095310
 1  10.10322779637964 -2.77572919551955 -0.36382847354735
 1  11.37364212641264  0.78611301880188  0.18348031143114
 1  11.50642105180518 -1.07144948304830  0.94977245024502
 1  13.03338907460746 -1.51224808620862 -0.97574590949095
 1  12.49622852885289  0.02463194219422 -1.70405876967697
 1  13.89681118431843  0.89477273277328  0.46965362586259
 1  13.89879596989699 -0.86487892519252  0.89292446214621
 1  15.20165255735574  0.43803366376638 -1.62153181268127
 1  16.02268426942694 -2.34422114801480 -0.22019961756176
 1  15.34351188298830 -1.97111530513051 -1.81921964236424
 1  16.90482854145415 -1.52877680628063 -1.44690679947995
 1  16.13669887958796  1.30526959965997  0.91834525552555
 1  16.38580028202820 -0.27386378207821  1.20626355805581
 1  18.40374956685669 -0.46199316311631 -0.27194320192019
 1  17.84222430363036  0.93585484398440 -1.13499698359836
 1  18.48545722852285  2.32169406900690  1.01682678357836
 1  18.81159743714371  0.82759637093709  1.83855020662066
 1  20.51771183788379  0.28812524832483 -0.14529677927793
 1  20.35249208250825  3.16419540444044 -0.93931420092009
 1  21.59778589248925  2.15575145304530 -1.23531478547855
 1  19.98613944714471  1.83874527682768 -1.67441786508651
 1  21.25264527982798  0.92043134693469  2.35331477307731
 1  22.32037667816782  1.79131766296630  1.11817608380838
 1  20.96773930653065  2.69150282648265  1.80518644984498

