%nproc=3
%Mem=2GB
# td=(NStates=10) iop(3/107=0140000000,3/108=0140000000) CAM-B3LYP/6-31G(d,p) 

TD

0 1
12 -7.17238890819082  0.64066230693069  0.06614466306631
 6 -4.81348022912291 -1.92709482078208  0.53987962286229
 6 -4.83802310861086  2.83380770807081  1.18894235143514
 6 -9.47355194399440  3.05168756815682 -0.39533086608661
 6 -9.51964299189919 -1.79229940494049 -0.78376649164917
 7 -5.10475325692569  0.46477773827383  0.61441896229623
 6 -4.30004761006101 -0.66906752715272  0.78538044084408
 6 -2.88812977417742 -0.28988426052605  1.25141058225823
 6 -3.03183347254725  1.13831496399640  1.62847565396540
 6 -4.45073316001600  1.50902128252825  1.04230049124912
 6 -2.83355114611461  1.47652413971397  3.10781430753075
 6 -1.88622290319032 -0.54880889098910  0.05324465026503
 6 -0.43124137813781 -0.31298953035304  0.57687627052705
 6  0.63930330873087 -0.62954638673867 -0.52542419421942
 8  0.34245479517952 -1.11885328912891 -1.66626590689069
 8  1.75240226522652 -0.33877878467847 -0.02799701980198
 7 -7.10551816031603  2.58250965826583  0.27126228302830
 6 -6.08266539753975  3.32407336123612  0.74115209920992
 6 -6.40296828652865  4.69203983438344  0.80947871237124
 6 -7.78387898329833  4.78919880658066  0.30913782078208
 6 -8.27734828802880  3.44423471477148  0.11867220642064
 6 -5.64812059325933  5.96963805510551  1.37131365656566
 6 -8.74483369576958  5.92150721872187  0.34936495839584
 6 -8.38909810761076  7.27715379967997  0.19041477917792
 7 -9.18572360806081  0.65678215651565 -0.43674537983798
 6 -9.94747640664066  1.71973265586559 -0.61545666986699
 6 -11.32344708760876  1.41488247864786 -0.87743249284928
 6 -11.31581010171017  0.09114299159916 -1.14755402160216
 6 -10.02323220692069 -0.48722721082108 -0.71833113601360
 6 -12.40453869596960  2.36166844774477 -1.36455698659866
 6 -12.55499554525453 -0.78696975917592 -1.68389356655666
 6 -12.36032236423642 -1.38773265846585 -3.15787389278928
 7 -7.27875412751275 -1.42531189278928 -0.13779689838984
 6 -8.29125434773477 -2.25205114461446 -0.53105091099110
 6 -7.76545421292129 -3.64484866776678 -0.59085751475148
 6 -6.47428295029503 -3.57209152465247 -0.27772026412641
 6 -6.17905268346835 -2.20987714221422  0.04472609400940
 6 -8.56138648334833 -4.91767458635864 -0.93479302630263
 6 -5.28158469616962 -4.32580856615662  0.14154265416542
 8 -5.22113347514751 -5.52333498709871  0.17127316211621
 6 -4.14152756275628 -3.34201713581358  0.47929882188219
 6 -3.53606797099710 -3.66369245384538  1.79274045374537
 8 -3.60218387298730 -3.13451668446845  2.93434715001500
 8 -2.75848719661966 -4.73578173067307  1.65569365736574
 6 -2.09846248474847 -5.11709217851785  2.79627096409641
 6  2.82413619021902 -0.46373563126313 -1.04493986888689
 6  4.20282360476048 -0.27106095549555 -0.49083161186119
 6  5.14685829322932  0.50522384688469 -0.91212111231123
 6  5.01765918251825  1.41605614191419 -2.11957904900490
 6  6.48333479107911  0.53568237513751 -0.12056874307431
 6  7.58821656055605 -0.24866674857486 -0.96470613931393
 6  8.94141322372237 -0.13774350785079 -0.21019361356136
 6  10.15345623862386 -0.45176227452745 -0.92472886728673
 6  10.18464565076508 -1.94822415731573 -1.48679034053405
 6  11.49569068616862 -0.28885977657766 -0.09622942424242
 6  12.84265143414341 -0.40590710661066 -0.71059159895990
 6  14.00594628242824 -0.19787655085509  0.17444465746575
 6  15.39075441944194 -0.24907751945195 -0.41688473877388
 6  15.74263836603660 -1.70148293409341 -0.77865514531453
 6  16.38807206120612  0.37827221332133  0.46854603930393
 6  17.83367907220722  0.43865199099910 -0.24338261816182
 6  18.82213761326133  1.17763961076108  0.67928028972897
 6  20.31604928472847  1.22389813441344  0.23404300790079
 6  20.48381861076107  1.98699434743474 -1.05563138453845
 6  21.24829270337034  1.79140350975098  1.33893059465947
 1 -4.27889814831483  3.75199358105811  1.63869839083908
 1 -10.19655340704070  3.89944752865287 -0.46181048364837
 1 -10.35635489728973 -2.53931398609861 -1.22131567906791
 1 -2.54242293299330 -0.98002766646665  2.03123036163616
 1 -2.32432207020702  1.74351283988399  1.15705007150715
 1 -1.95711943524352  1.14334982398240  3.47361757515752
 1 -2.84316910311031  2.56159561616162  3.20634520202020
 1 -3.57555853705371  1.08432279998000  3.82273615811581
 1 -2.10488301520152 -1.58654457485749 -0.29615460146015
 1 -2.11559576177618  0.19590168146815 -0.52830793239324
 1 -0.30430752475248  0.60461838533853  1.16888914081408
 1 -0.19501545524552 -1.12995597099710  1.33239611551155
 1 -4.90689285698570  6.50892606770677  0.75980776297630
 1 -6.29460413071307  6.92484228302830  1.73738842804280
 1 -4.98891212001200  5.48138330973097  2.31942562126213
 1 -9.82171967086709  5.69876281238124  0.45326317081708
 1 -9.18432907330733  7.99726831633163  0.21784237753775
 1 -7.24458949554955  7.40367093629363  0.04875040444044
 1 -12.02243765656566  3.13034033933393 -2.03163946234623
 1 -13.39829504300430  1.65495113321332 -1.98265178887889
 1 -12.89634659605961  2.78236132153215 -0.49804130213021
 1 -12.90071259935993 -1.55811821002100 -0.72865307320732
 1 -13.36697270087009 -0.10651446444644 -1.71673903090309
 1 -13.26977744394439 -1.91667290649065 -3.32071506920692
 1 -12.19107928192819 -0.59557828372837 -4.00158773377338
 1 -11.50935428302830 -2.08825176917692 -3.22298141364136
 1 -8.92421331723173 -4.74429727802780 -2.02422000340034
 1 -8.24890859185919 -5.99534964316432 -0.91754598269827
 1 -9.41035320112011 -4.97951473847385 -0.27268552475248
 1 -3.40566069806981 -3.28745032953295 -0.42933958695870
 1 -1.27258834883488 -4.47192556985698  3.23440012701270
 1 -2.63399858725873 -5.40668131053105  3.65776299839984
 1 -1.77680910741074 -5.97936211331133  2.32048875177518
 1  2.75155982708271 -1.48902859275928 -1.50401447774777
 1  2.64071577177718  0.15902882128213 -1.97806982678268
 1  4.25895511981198 -0.86209421562156  0.34044642084208
 1  4.08930986728673  1.49452054835484 -2.41676501880188
 1  5.56917021542154  2.29981437163716 -1.97748210281028
 1  5.66023134593459  0.85012534273427 -2.81660295959596
 1  7.09409243254325  1.53740996869687  0.00547804550455
 1  6.23845719371937  0.15884263536354  1.00655166226623
 1  7.35740948304830 -1.33300437213721 -0.98702283098310
 1  7.61015254625463  0.15072194869487 -2.16442658955896
 1  9.22175827302730  0.89758237473747  0.28447240974097
 1  8.86691451425142 -0.84470282568257  0.66165078367837
 1  10.38631034253425  0.19815458175818 -1.83106693729373
 1  9.32617911431143 -2.21835888018802 -2.09019398059806
 1  10.93460654535454 -2.05159167176718 -2.05850203620362
 1  10.01980945454545 -2.63524514711471 -0.60022211291129
 1  11.63856861906191  0.61572598009801  0.70703266666667
 1  11.34514492419242 -0.88161049914992  0.73413088608861
 1  13.11477721342134 -1.58946580798080 -1.03553188808881
 1  12.82804171017102  0.28601808080808 -1.48898726252625
 1  13.80603210641064  0.72566582208221  0.69851651215121
 1  13.87939402970297 -0.86267870517052  1.00651582128213
 1  15.25048744084408  0.41209106950695 -1.50049970947095
 1  15.49283128412841 -2.35954268016802  0.18941134353435
 1  14.92502003380338 -2.09024721832183 -1.37795551595160
 1  16.65718377697770 -1.92473640224022 -1.37946005480548
 1  16.07678288798880  1.35967504020402  0.98353177417742
 1  16.49058076007601 -0.30984738043804  1.38075100680068
 1  18.19007819971997 -0.60779774357436 -0.56133214081408
 1  17.63463354455446  1.11423268176818 -1.12517600150015
 1  18.71170985378538  2.34778667826783  0.88437353825383
 1  18.99564584198420  0.79921353265327  1.78067441904190
 1  20.64695476217621  0.02465890169017  0.08385613601360
 1  20.23432026532653  2.98167715261526 -0.92551282078208
 1  21.52414852875287  1.87124300220022 -1.28571982598260
 1  19.91389222242224  1.68435983828383 -1.91230165346535
 1  21.00360037533753  1.14633393719372  2.34469391099110
 1  22.25266990749075  1.78981751295130  1.03075734193419
 1  20.80815334793479  2.80704438063806  1.52155808700870

