%nproc=3
%Mem=2GB
# td=(NStates=10) iop(3/107=0140000000,3/108=0140000000) CAM-B3LYP/6-31G(d,p) 

TD

0 1
12 -7.15344701400140  0.67618585928593 -0.00585253665367
 6 -4.95675455655566 -2.00140225152515  0.51772740764076
 6 -4.85792509880988  2.84034836213621  1.13692714991499
 6 -9.46363095189519  3.15041744114411 -0.34897623062306
 6 -9.54410543814381 -1.68783895889589 -0.81929004400440
 7 -5.09623240484048  0.41557281778178  0.73669118951895
 6 -4.36579418471847 -0.69094971537154  0.84309621242124
 6 -2.88637959915992 -0.34648992109211  1.30303574477448
 6 -3.02580286948695  1.06987812031203  1.60909371577158
 6 -4.44980306700670  1.53304368476848  1.06770303150315
 6 -2.97400519151915  1.31814830213021  3.15053857995800
 6 -1.94126840774077 -0.63249725982598  0.05037436323632
 6 -0.47994624862486 -0.55651388278828  0.56619520242024
 6  0.52644202260226 -0.76901033313331 -0.54338599039904
 8  0.15749629932993 -1.13050445424542 -1.65746502680268
 8  1.83942096709671 -0.53302820962096 -0.15747996809681
 7 -7.17704531303130  2.60788219551955  0.43539869666967
 6 -6.07555468646865  3.36698765266527  0.79768775277528
 6 -6.41279926962696  4.76462709310931  0.83162092659266
 6 -7.72388298369837  4.82365225192519  0.38826573357336
 6 -8.17683823702370  3.46221651295129  0.22846318551855
 6 -5.57011279247925  5.94384547584758  1.29266579177918
 6 -8.58927814021402  6.07047211521152  0.18213823572357
 6 -8.20523972177218  7.30808689298930 -0.01897615991599
 7 -9.14646968266827  0.71062754105411 -0.41447315261526
 6 -9.89140079907991  1.81811249384939 -0.65596072027203
 6 -11.21598634153415  1.48992998339834 -1.01536628622862
 6 -11.22013053375337  0.10700457775778 -1.13024229042904
 6 -9.93342322602260 -0.38130661876188 -0.80429973287329
 6 -12.32825106720672  2.38092037293729 -1.24314484538454
 6 -12.41869191489149 -0.69778084028403 -1.56501167836784
 6 -12.17674400640064 -1.15583946914691 -3.03968207360736
 7 -7.22246849894989 -1.43195255685569 -0.19499261796180
 6 -8.25429065136514 -2.20349628912891 -0.50414822072207
 6 -7.84440210771077 -3.58108229112911 -0.49620804980498
 6 -6.51881740374037 -3.52131644714471 -0.11963445554555
 6 -6.26674145234523 -2.19975613011301  0.15745736713671
 6 -8.71464180888089 -4.72016483538354 -0.89954950195020
 6 -5.42506904460446 -4.41345733103310  0.21125962586259
 8 -5.25779714151415 -5.63301595519552  0.23315935073507
 6 -4.15149855985599 -3.33527646174617  0.54186507850785
 6 -3.38767313151315 -3.70764684928493  1.77936911661166
 8 -3.60358401300130 -3.13955718851885  2.84849856515652
 8 -2.57639898779878 -4.83603175567557  1.54794288228823
 6 -1.82145478397840 -5.12483295259526  2.74174551155116
 6  2.72782655925593 -0.83200245794579 -1.19101447634763
 6  3.98036135853585 -0.49097294669467 -0.61461399009901
 6  5.07027063446345  0.31871519601960 -0.95659555975598
 6  5.00504792139214  1.11054559085909 -2.18422551365137
 6  6.41242770037004  0.37552635953595 -0.28436512271227
 6  7.64896263516352 -0.11274315621562 -1.03573324202420
 6  8.92896197859786 -0.20916064956496 -0.26225882008201
 6  10.30706159915992 -0.54094119241924 -0.94278067246725
 6  10.20604779097910 -2.01322065696570 -1.45296695819582
 6  11.37584870197020 -0.22554344494449 -0.00941074237424
 6  12.78230539953995 -0.54383089898990 -0.74551509130913
 6  14.02109779757976 -0.06006276947695  0.06262347534753
 6  15.36255159915992 -0.19619223092309 -0.57415046534653
 6  15.72602670487049 -1.69934272007201 -0.90848812861286
 6  16.32230548454845  0.48921330743074  0.43848303300330
 6  17.79739544384439  0.58044617041704 -0.14268254815482
 6  18.80700610011001  1.24857670447045  0.79921228292829
 6  20.23074075387539  1.42516826142614  0.39466907050705
 6  20.31988221712171  2.18135378337834 -0.90705652705271
 6  21.13434130823082  1.98765313471347  1.55940264186419
 1 -4.16828708720872  3.68841722342234  1.57003152415241
 1 -10.12049580128013  4.06308389228923 -0.28658296089609
 1 -10.24089335113511 -2.52428248294829 -1.16623017051705
 1 -2.71570026072607 -0.92445210891089  2.03194043264326
 1 -2.11079071707171  1.44343283188319  1.17261162766277
 1 -2.05314903820382  0.89599508850885  3.58220843424342
 1 -2.96558134433443  2.45126458305831  3.18184275177518
 1 -3.75867684888489  0.86390075777578  3.63352723722372
 1 -2.24624715161516 -1.60808672907291 -0.51548653465347
 1 -2.16563076527653  0.11064315561556 -0.67007210881088
 1 -0.53487058105811  0.39898782228223  1.07006925882588
 1 -0.20613656735674 -1.30120309570957  1.36217909380938
 1 -5.07637980568057  6.40230540564056  0.59145092729273
 1 -6.11933660396040  6.57037683648365  1.99319400860086
 1 -4.71389461826183  5.56066123752375  1.86538021672167
 1 -9.70673817271727  5.78700163626363  0.36260410491049
 1 -8.90676131653165  8.36040462996300 -0.02498190489049
 1 -7.18524356095610  7.59373994319432 -0.06172064266427
 1 -12.11463687648765  3.01610891619162 -2.18390468886889
 1 -13.32057727122712  1.95949158725873 -1.55489901360136
 1 -12.68554551595160  3.29125221062106 -0.54239573757376
 1 -12.59547207530753 -1.64514691289129 -0.88156836473647
 1 -13.24560056365637 -0.06310012301230 -1.48228558555856
 1 -13.19230969716972 -1.67935917511751 -3.48107110481048
 1 -11.90636081008101 -0.23739246514652 -3.63552112711271
 1 -11.22918626622662 -1.70329327332733 -3.18688780428043
 1 -9.08728962486249 -4.60815366366637 -1.86162374377438
 1 -8.14660836183618 -5.70617072527253 -0.74564879297930
 1 -9.58346051185118 -4.73189997699770 -0.19394765096510
 1 -3.47259739173917 -3.34556614111411 -0.39917657065707
 1 -1.22335342534253 -4.39379775707571  3.24701138813881
 1 -2.46198138553855 -5.62305294769477  3.46538376047605
 1 -1.08291971847185 -5.98071224832483  2.54359106200620
 1  2.65061973307331 -1.97079676957696 -1.40807488378838
 1  2.54673637383738 -0.12705978757876 -2.07594961476148
 1  4.38447767206721 -1.09447745394539  0.33259563576358
 1  3.90135107140714  1.35863695999600 -2.55069841214121
 1  5.68473177157716  2.09283367356736 -2.18930328492849
 1  5.51904722752275  0.60199052925292 -2.90658195749575
 1  6.68007103040304  1.44410063776378  0.04815231293129
 1  6.27707105510551 -0.10905415431543  0.79728073517352
 1  7.44348809090909 -1.13777484918492 -1.58383251195120
 1  7.87699923092309  0.64865174167417 -1.79754990189019
 1  9.06337243444344  0.78031064756476  0.16305026752675
 1  8.82781060386039 -0.78654701010101  0.59448406700670
 1  10.73733544504450  0.02550731703170 -1.74857868846885
 1  9.43293979037904 -2.03871091539154 -2.21565652685269
 1  11.12338542324232 -2.25315182778278 -1.89259544554455
 1  9.87148462206221 -2.57337896049605 -0.57268935963596
 1  11.26944170637064  0.75092950045005  0.28935089848985
 1  11.40878128782878 -0.93778611671167  0.81244871787179
 1  12.84051978767877 -1.66997385878588 -1.00270860576058
 1  12.68219712571257  0.10749022802280 -1.54676304010401
 1  13.78353985718572  0.81468472397240  0.42257891839184
 1  14.05619170947095 -0.43797623492349  1.13204837453745
 1  15.31598399049905  0.37764762516252 -1.60883054255426
 1  15.71461346234624 -2.22877960386039  0.25519792219222
 1  15.10624815661566 -2.08558675227523 -1.66528424882488
 1  16.67827588618862 -1.67247117571757 -1.46980908970897
 1  15.92741795149515  1.44281335403540  0.62450587158716
 1  16.43026472847285 -0.13005940164016  1.35823875557556
 1  18.30196938883888 -0.38168513231323 -0.73964997259726
 1  17.62080216141614  1.19350060856086 -1.16976045994600
 1  18.66884556735673  2.24059595919592  1.02637773867387
 1  18.72362864026402  0.91605521682168  1.86840319191919
 1  20.51544161086109  0.53145958175818  0.46891464186419
 1  19.57717455075508  3.12148113301330 -0.86928719821982
 1  21.28745485938594  2.42893877177718 -1.01525277927793
 1  19.86261709490949  1.79584098639864 -1.71274169746975
 1  21.18267828312831  1.27611691549155  2.43305274687469
 1  22.20247488798880  1.99202773397340  1.08963322952295
 1  21.02622515511551  2.81852552875288  1.99477540874087

