%nproc=3
%Mem=2GB
# td=(NStates=10) iop(3/107=0140000000,3/108=0140000000) CAM-B3LYP/6-31G(d,p) 

TD

0 1
12 -7.10586225552555  0.61804004470447  0.18438648724872
 6 -4.76867574867487 -1.94146625792579  0.55391102600260
 6 -4.89121842814281  2.78070239753975  1.27445090229023
 6 -9.38404299309931  3.08156055545555 -0.39684101710171
 6 -9.54116514411441 -1.77291746674667 -0.88310642564256
 7 -5.07868064966497  0.36961822232223  0.77277479787979
 6 -4.23845145044504 -0.71379199959996  0.88843074587459
 6 -2.79302026322632 -0.34590986308631  1.21607704890489
 6 -2.96760704990499  1.17497863036304  1.76673948034803
 6 -4.43728181488149  1.51460184058406  1.33377963916392
 6 -2.98592638363836  1.15314180148015  3.24884841094109
 6 -1.90475475637564 -0.49299330943094  0.10565989178918
 6 -0.41586984098410 -0.34570280168017  0.56519510241024
 6  0.46920629902990 -0.59817324942494 -0.68675032683268
 8  0.16294684438444 -1.06947835163516 -1.73743302360236
 8  1.76927395239524 -0.43119802660266 -0.28781300140014
 7 -7.11787939643964  2.62476388368837  0.32596775357536
 6 -6.05148227922792  3.32885383928393  0.82488047204720
 6 -6.42957094679468  4.74511514191419  0.82284004850485
 6 -7.71022161756176  4.83259314601460  0.37708461546155
 6 -8.15726627982798  3.52886317761776  0.08643898309831
 6 -5.64027980918092  5.76791788308831  1.27414393959396
 6 -8.56529574197420  6.03713878187819  0.15135515741574
 6 -8.19528872667267  7.34668075237524  0.03117885558556
 7 -9.14294933063306  0.62443892219222 -0.44857656295630
 6 -9.95293695269527  1.73902458505851 -0.61309643384338
 6 -11.27066180908091  1.49975096549655 -1.06397114671467
 6 -11.29211773247325  0.11126500380038 -1.31504077027703
 6 -9.97039692339234 -0.42301078917892 -0.80964026692669
 6 -12.34385262736274  2.49588186908691 -1.19478000890089
 6 -12.36647669336934 -0.66682774497450 -1.89762493969397
 6 -12.16390272227223 -1.13618750395040 -3.39399750515052
 7 -7.19920617271727 -1.37192655425543 -0.11189430813081
 6 -8.30829605190519 -2.26777271677168 -0.51892969886989
 6 -7.77020468796880 -3.60844502740274 -0.57864629362936
 6 -6.46234175617562 -3.52661697719772 -0.06904939703970
 6 -6.17513229142914 -2.17239339383938  0.15211683308331
 6 -8.58363870857086 -4.75358817771777 -0.92190173717372
 6 -5.22994953265327 -4.32846883218322  0.17893639353935
 8 -5.15162652445245 -5.56287894149415 -0.03538750395040
 6 -4.19397280728073 -3.30512344644464  0.54841573357336
 6 -3.51821618581858 -3.62513859845985  1.86961814151415
 8 -3.75559921452145 -3.13786701950195  3.00098381368137
 8 -2.63360470837084 -4.68408656115612  1.74338242624262
 6 -2.01802444094409 -5.16077654695470  2.93850518751875
 6  2.86944072067207 -0.76027528522852 -1.31887726262626
 6  4.05882920532053 -0.64954880428043 -0.54424695339534
 6  5.01978558595860  0.24791811631163 -0.90776067626763
 6  5.06780419701970  1.31859639593959 -2.08672576367637
 6  6.35494195179518  0.34354316121612 -0.17661434763476
 6  7.55900363926393 -0.23731561346135 -0.91518118681868
 6  8.87897698009801 -0.19303903740374 -0.17232982718272
 6  10.16166705970597 -0.53449054735474 -0.97037343174317
 6  10.27050423662366 -2.06934626952695 -1.25990765226523
 6  11.37128824592459 -0.20136102670267  0.00762096079608
 6  12.74644181318132 -0.43500001590159 -0.72320286008601
 6  13.96935262306231 -0.12277904110411  0.23089030203020
 6  15.24897024102410 -0.18928153985399 -0.51867491779178
 6  15.65808991119112 -1.55652843864386 -1.02395967576758
 6  16.31113436743674  0.39539392549255  0.48519770447045
 6  17.73112881718172  0.42579070487049 -0.03751203110311
 6  18.76984238373837  1.22559440624062  0.78772113381338
 6  20.16136381618162  1.35678142274227  0.10367997159716
 6  20.15928615751575  2.30454610261026 -1.14625044644464
 6  21.15825369946995  1.84117848724872  1.27463416501650
 1 -4.11504176267627  3.51188957065707  1.71193571457146
 1 -9.96802055375537  3.84694227812781 -0.84585888848885
 1 -10.16479574137414 -2.75985604030403 -1.09606315381538
 1 -2.43033172387239 -0.97120678437844  2.05553279187919
 1 -2.20976061406141  1.82431091969197  1.40166453295330
 1 -2.03541726502650  0.96020150915091  3.54661487488749
 1 -3.33802858905891  2.08134759135914  3.63862843034303
 1 -3.60670165136514  0.34017838553855  3.77825170967097
 1 -2.14097662456246 -1.43821974237424 -0.18955394139414
 1 -2.18593279547955  0.14813690499050 -0.64240934253425
 1  0.01579448544854  0.74327225072507  1.04724697659766
 1  0.01109515581558 -1.05968894429443  1.33611648754875
 1 -4.90472263996400  6.17154232933293  0.38302008420842
 1 -6.06188085838584  6.55570536933693  1.62505719491949
 1 -5.01071430023002  5.66695186658666  2.18949262796280
 1 -9.61884938383838  5.64065700180018  0.27344518901890
 1 -8.97712835323532  8.14392298179818 -0.00138954565456
 1 -7.24259929652965  7.63350391959196 -0.19996446704671
 1 -12.16900231303130  3.28543584888489 -1.77355365376538
 1 -13.20972618611861  1.95666130423042 -1.70141366506651
 1 -12.44123108450845  2.81935502090209 -0.28016951495149
 1 -12.59822235033503 -1.66525892409241 -1.20899110701070
 1 -13.24696069966997 -0.11756556955696 -1.74784214121412
 1 -13.11264173037304 -1.76233747294729 -3.73165616331633
 1 -11.90647082108211 -0.21277000290029 -4.04148172317232
 1 -11.22467581518152 -1.82282522652265 -3.24540365586559
 1 -8.69535043094309 -4.87754060236024 -1.94478205960596
 1 -8.24906860786079 -5.88980908910891 -0.69252348044804
 1 -9.66573873967397 -4.93115990299030 -0.45270352655266
 1 -3.61357148914892 -3.30563214771477 -0.27763441644164
 1 -1.53523461346135 -4.28620699799980  3.51444813181318
 1 -2.68589377677768 -5.60281092349235  3.75888311041104
 1 -1.36597802430243 -6.01226540364036  2.68264496739674
 1  2.68659333043304 -1.94626431633163 -1.33409748604860
 1  2.82090379057906 -0.45324240584058 -2.24678669846985
 1  4.13734295859586 -1.08978698489849  0.48906128232823
 1  4.12987392369237  1.58965006130613 -2.66698004030403
 1  5.45897919631963  2.30134452465247 -1.51727608220822
 1  6.02053737653765  1.13224355455546 -2.69401070037004
 1  6.46867989128913  1.37925415311531  0.25567306500650
 1  6.26843019101910 -0.33798704760476  0.80812181928193
 1  7.26396013811381 -1.41988306000600 -1.07478160686069
 1  7.89505103610361  0.23052992949295 -1.86660680758076
 1  9.02957905510551  1.01651426792679 -0.00780681818182
 1  8.85527335013501 -0.73121147654765  0.96634125272527
 1  10.11698340984098  0.31051581788179 -1.68015184578458
 1  9.28809530593059 -2.32219926422642 -1.84898986018602
 1  11.06210929562956 -2.35621213381338 -1.91466765276528
 1  10.26108358195820 -2.55861748434843 -0.43495558625863
 1  11.35894065626563  0.79644405190519  0.36768873227323
 1  11.19663007270727 -0.88937127522752  0.69922739573957
 1  12.76407214291429 -1.56038289968997 -0.99722805770577
 1  12.93208211421142  0.18458793779378 -1.61739010281028
 1  13.71225272847285  0.92618587408741  0.60850751125113
 1  14.12451854215421 -0.76954939223922  1.10928609830983
 1  15.38599099119912  0.54990485088509 -1.33346300580058
 1  15.92929493049305 -2.16641336723672 -0.20502810041004
 1  14.80964849664966 -1.98738693229323 -1.47130485088509
 1  16.69233729232923 -1.37022095069507 -1.73975608440844
 1  16.15245045474547  1.41824089678968  0.96784020502050
 1  16.33376507850785 -0.31216761246125  1.35062799449945
 1  18.25847503940394 -0.58577554135414 -0.44539054665467
 1  17.79617969916992  0.98386964546455 -1.02438592249225
 1  18.32814149694969  2.25975787538754  0.88464356525653
 1  18.80563684108411  0.66184979627963  1.77888424002400
 1  20.50561062776277  0.26770320612061 -0.49618186778678
 1  20.15473230653065  3.40716970187019 -0.92160242974298
 1  21.19179529342934  2.01539741764176 -1.52495374937494
 1  19.57096792999300  2.17125852815282 -2.02475289858986
 1  21.26785680098010  1.06265556935694  2.08103754535454
 1  22.22161680218022  2.23867239843984  1.00057432363236
 1  20.94077661026103  2.95922959915992  1.70820675187519

