%nproc=3
%Mem=2GB
# td=(NStates=10) iop(3/107=0140000000,3/108=0140000000) CAM-B3LYP/6-31G(d,p) 

TD

0 1
12 -7.19411108040804  0.60405864656466  0.09842789138914
 6 -4.82994187528753 -1.94904701600160  0.41916755165517
 6 -4.94342364866487  2.84850917821782  1.22829628682868
 6 -9.44108869766977  3.04104650405040 -0.29474080708071
 6 -9.50906193379338 -1.76815699069907 -0.75618373337334
 7 -5.09900268186819  0.45760702120212  0.69064658505851
 6 -4.30210781608161 -0.67059768016802  0.78383028582858
 6 -2.94091505270527 -0.37714298639864  1.18204364556456
 6 -3.00115040424042  1.19993112561256  1.57103991039104
 6 -4.47434552125213  1.50871125152515  1.15309157035704
 6 -2.75229302030203  1.44358084538454  3.15555908200820
 6 -1.88094237513751 -0.62903691379138  0.03984331013101
 6 -0.41546980098010 -0.44571280268027  0.54911349424942
 6  0.43173255165517 -0.68469190129013 -0.64430608240824
 8  0.16620717041704 -1.08538994279428 -1.79955923622362
 8  1.71887891289129 -0.50460536733673 -0.12912713281328
 7 -7.15748335683568  2.60474188148815  0.40618577537754
 6 -6.13066019701970  3.36018697259726  0.85556354035404
 6 -6.52380036973697  4.75225585598560  0.85004276877688
 6 -7.74453504890489  4.82837272397240  0.39935684268427
 6 -8.28407896109611  3.44571486278628  0.15235557475748
 6 -5.64609039023902  5.84234532583258  1.47785431063106
 6 -8.66417562996300  6.01158622662266  0.40237025892589
 6 -8.36568576637664  7.30686677097710  0.27378311601160
 7 -9.14003903960396  0.73184966326633 -0.50589229452945
 6 -9.86495815481548  1.79924060666067 -0.56488161236124
 6 -11.17714245714571  1.44662565296530 -1.18211296089609
 6 -11.21287980868087  0.01475535283528 -1.29083835003500
 6 -9.94017390109011 -0.42957144524452 -0.88140744364436
 6 -12.33458170027003  2.40891317221722 -1.37992852375238
 6 -12.32798284398440 -0.89119018121812 -1.81688686588659
 6 -12.30329666166617 -1.13498738393839 -3.32112021742174
 7 -7.19799605170517 -1.36673603520352 -0.20076319501950
 6 -8.23354857715772 -2.30144608410841 -0.40579838573857
 6 -7.81368903640364 -3.56964114701470 -0.44041247024702
 6 -6.49584510651065 -3.44717903340334 -0.19722221432143
 6 -6.18419319751975 -2.15160131463146  0.05418704010401
 6 -8.50809115381538 -4.85891871077108 -0.83834338133813
 6 -5.28541507920792 -4.27896388168817  0.09542804270427
 8 -5.02037339913991 -5.47911056465647  0.06377241204120
 6 -4.15222863286329 -3.35401833593359  0.41449234123412
 6 -3.51439580378038 -3.63815990059006  1.81914309400940
 8 -3.67299095369537 -3.02771600440044  2.80114382968297
 8 -2.59646099399940 -4.64693284578458  1.72520060806081
 6 -2.08725136363636 -4.99220969026903  2.98820015701570
 6  2.74565834243424 -0.62795205290529 -1.24067944284428
 6  4.09057237963796 -0.48782263166317 -0.67042957165717
 6  5.12752636003600  0.27476080058006 -1.01816171637164
 6  5.06637405400540  1.31006554285429 -2.14779187028703
 6  6.34142059965997  0.26299510641064 -0.09682636883688
 6  7.63428116701670 -0.28204008590859 -0.78195786448645
 6  8.93740282268227 -0.28140787428743  0.06420382618262
 6  10.17310820382038 -0.50356745504550 -0.79478587298730
 6  10.13818100430043 -2.04434376927693 -1.27745940744074
 6  11.42707382448245 -0.26598748934893  0.00958115681568
 6  12.82679984898490 -0.43769028492849 -0.65840638043804
 6  13.97968365616562 -0.18156491969197  0.24699191219122
 6  15.28143348734874 -0.27677028872887 -0.39011206150615
 6  15.58552265446545 -1.74869765556556 -0.68180546034603
 6  16.46267952195219  0.37932231833183  0.40521970667067
 6  17.79640534483448  0.51619974577458 -0.30167844774477
 6  18.88111351085109  1.16749859665967  0.61493385508551
 6  20.29362704250425  1.33694943954395  0.17454705830583
 6  20.26576680558056  2.14316996499650 -1.23631945334533
 6  21.21290916501650  2.04624899429943  1.23344004560456
 1 -4.19309956845685  3.62411079277928  1.65997051805181
 1 -9.92580633233323  3.87202478637864 -0.52589689228923
 1 -10.34304356615661 -2.41669172387239 -1.19785333283328
 1 -2.75561425212521 -0.97035669936994  2.18999623822382
 1 -2.42382202020202  1.77265575417542  0.90393475997600
 1 -1.78991271457146  1.23427891689169  3.58447866126613
 1 -2.85599038523852  2.41046050265027  3.40537510501050
 1 -3.27810879207921  0.92136650435043  3.73311719621962
 1 -2.00627315421542 -1.71493741414141 -0.21023600960096
 1 -2.16052025422542 -0.08203611231123 -0.85647074867487
 1 -0.22246934093409  0.46539446294629  1.01889414131413
 1 -0.21098705240524 -1.32083505890589  1.19022189808981
 1 -4.80816298399840  6.12780795589559  0.95920770297030
 1 -6.19928459875988  6.73768356715672  1.64309899909991
 1 -5.12209543834383  5.55074024542454  2.53878755745575
 1 -9.69261676057606  5.82577551365137  0.53059090359036
 1 -9.06133677407741  8.14216280578058  0.22305289858986
 1 -7.31279631623162  7.72200276947695  0.30689621902190
 1 -11.85132054485449  3.27469477477748 -1.99143544194419
 1 -13.28613382688269  1.87748338643864 -1.97286080978098
 1 -12.78308526992699  2.68664174957496 -0.37137863586359
 1 -12.34466699479948 -1.77533993219322 -1.13077328522852
 1 -13.13949995359536 -0.33215702870287 -1.28253561056106
 1 -13.06223668986899 -1.84809604880488 -3.75656865456546
 1 -12.65440561456146 -0.20624935083508 -3.81665924092409
 1 -11.36100944854485 -1.56721966596660 -3.72022113761376
 1 -8.91170206610661 -4.88609145744574 -1.85656323772377
 1 -8.13754745574557 -5.78567867606761 -0.41438566666667
 1 -9.38766093189319 -5.05149193619362 -0.23328158435844
 1 -3.36085621762176 -3.28485006950695 -0.43661031403140
 1 -1.12198328832883 -4.47000537783778  3.13779046604661
 1 -2.77130231763176 -5.01638228062806  3.75875309740974
 1 -1.67387881438144 -6.03240741784178  2.60099680258026
 1  2.69012368346835 -1.76954664456446 -1.61858593489349
 1  2.63498519871987  0.04385730413041 -1.96523854365437
 1  4.12961218551855 -1.12151015721572  0.30956333253325
 1  3.95141607790779  1.36061715801580 -2.49851319361936
 1  5.37389068746875  2.25425981618162 -1.62387674227423
 1  6.05133045584558  1.07721805200520 -2.91482278157816
 1  6.66794981828183  1.57871409910991 -0.04414691699170
 1  6.27564091209121 -0.03349659855986  0.95901690879088
 1  7.38015175727573 -1.34956602830283 -1.10525465416542
 1  7.91208273927393  0.03867074357436 -1.73218336523652
 1  9.02118821602160  0.84806742324232  0.55768973147315
 1  8.74891271407141 -1.01126948234824  0.75289990859086
 1  10.19805151665166  0.25515028132813 -1.62038586918692
 1  9.26450294669467 -2.14635167946795 -1.84207916911691
 1  11.00703378807881 -2.26058257085709 -1.94989117511751
 1  10.23776124972497 -2.54991661426143 -0.19847193789379
 1  11.48004276647665  0.71277568506851  0.34534649804980
 1  11.43146355605561 -0.70976331443144  1.01288876187619
 1  13.05920165586559 -1.38306516791679 -1.28883721862186
 1  12.87980688668867  0.16449592859286 -1.40761912571257
 1  13.86720822402240  0.78797205270527  0.76623328382838
 1  14.11707779807981 -0.91347378467847  1.06374154385439
 1  14.98710110221022  0.37294715511551 -1.32574223372337
 1  15.50162216321632 -2.42935966186619  0.21622402480248
 1  14.94685221702170 -2.12955114871487 -1.47211493189319
 1  16.48568662726273 -1.88322225082508 -1.32705481428143
 1  16.16866207590759  1.49152822552255  0.60902432343234
 1  16.53620532253225 -0.14541093679368  1.31171410311031
 1  18.05443463536354 -0.43592055585559 -0.81687769536954
 1  17.72794287548755  1.17011827032703 -1.13200668456846
 1  18.37791647444745  2.09729162876288  0.86092119301930
 1  18.76994327172717  0.78334194549455  1.63095944754475
 1  20.73161322802280  0.39484592039204  0.08245599599960
 1  19.80003683698370  3.19297828272827 -1.07548781828183
 1  21.27090320422042  2.34450032793279 -1.49900115411541
 1  19.72423325652565  1.59868127042704 -2.05239566286629
 1  21.20747076237624  1.35723502730273  2.09830927252725
 1  22.19738437893789  2.04733326452645  1.02396666286629
 1  20.71329386198620  3.19137281348135  1.30013594479448

