%nproc=3
%Mem=2GB
# td=(NStates=10) iop(3/107=0140000000,3/108=0140000000) CAM-B3LYP/6-31G(d,p) 

TD

0 1
12 -7.18141981128113  0.51033927462746  0.14086213481348
 6 -4.89268814991499 -1.99189130043004  0.53963959885989
 6 -4.87452675897590  2.81811613891389  1.19703316051605
 6 -9.51160574937494  3.10054245364536 -0.23542487548755
 6 -9.55207623522352 -1.69752992799280 -0.94774288928893
 7 -5.08198097969797  0.36873813431343  0.70056757715772
 6 -4.32483008830883 -0.66994761516152  0.75011691449145
 6 -2.90540150135014 -0.39054432653265  1.19636507770777
 6 -3.06321661086109  1.07153828632863  1.52841564796480
 6 -4.41993007970797  1.56795717611761  1.15049131033103
 6 -2.89324711571157  1.23757024432443  3.09341286738674
 6 -1.95651993289329 -0.77031104120412  0.06952627842784
 6 -0.54206246024602 -0.58972720412041  0.61283986688669
 6  0.48304768316832 -0.64979841194119 -0.49388103990399
 8  0.26908745844584 -0.86435783958396 -1.64125340564056
 8  1.73676070107011 -0.43978888568857 -0.05961018111811
 7 -7.11109871837184  2.57587899519952  0.34703986078608
 6 -6.05657278827883  3.45931688558856  0.74083206720672
 6 -6.46818480818082  4.75603623402340  0.92176994149415
 6 -7.80619121452145  4.82752263896390  0.48522542954295
 6 -8.16137669086909  3.46388667996800  0.15953629282928
 6 -5.51456723792379  5.85292638393839  1.37170369556956
 6 -8.57632684508451  6.04703977197720  0.37404742664266
 6 -8.16004520232023  7.16934301860186 -0.02051631393139
 7 -9.20383541924192  0.66220269856986 -0.39520122542254
 6 -9.92163382238224  1.78476915951595 -0.52325744994499
 6 -11.19869461236124  1.46107709810981 -1.12262701230123
 6 -11.21385990669067  0.11174505180518 -1.25042430863086
 6 -9.95047493119312 -0.42589107720772 -0.94961426432643
 6 -12.31694993709371  2.42130441134113 -1.35556608750875
 6 -12.36135618131813 -0.80698176037604 -1.78182335953595
 6 -12.36393272527253 -1.08631251645165 -3.33728183358336
 7 -7.24319057115712 -1.40615997759776 -0.16808992769277
 6 -8.24693991629163 -2.17646358585859 -0.64771257715772
 6 -7.77674534203420 -3.62733691659166 -0.59812824182418
 6 -6.47880340234023 -3.53397771327133 -0.23881637373737
 6 -6.22138691689169 -2.24056021052105  0.06566818821882
 6 -8.57524786948695 -4.85300811971197 -0.96074562156216
 6 -5.38064460216022 -4.40184616991699  0.17227572747275
 8 -5.24600596239624 -5.53385603920392 -0.02441640684068
 6 -4.23429683968397 -3.38444137823782  0.58565945794579
 6 -3.66675103930393 -3.76231231583158  1.92844402410241
 8 -4.05202885748575 -3.19619285208521  2.89102281758176
 8 -2.71076242414241 -4.72691084358436  1.87715580358036
 6 -2.24005664416442 -5.12687315661566  3.14901623862386
 6  2.80354413101310 -0.67317657535754 -0.99277465236524
 6  4.08358168056806 -0.34884873427343 -0.34074660336034
 6  5.11785539293929  0.39394271877188 -0.88050795099510
 6  5.03339075567557  1.12390692699270 -2.23004009510951
 6  6.46991344894489  0.62088089498950 -0.21843853005301
 6  7.66068380728073 -0.09695157705771 -0.89888955765577
 6  8.95548463086309  0.05264553105311 -0.05092768696870
 6  10.16138703170317 -0.42275937423742 -0.85956235063506
 6  10.14122130833083 -1.93001233613361 -1.22950461196120
 6  11.43381449854986 -0.14013490409041 -0.06573637493749
 6  12.83682085108511 -0.44750126602660 -0.75189572937294
 6  14.00678636643664 -0.04893165636564  0.05272248524852
 6  15.46602194619462 -0.28303091479148 -0.59231228152815
 6  15.73219732193219 -1.74081686748675 -0.98035531533153
 6  16.58789204320432  0.29163354945495  0.38389757445745
 6  17.98495419971997  0.45437356315632 -0.19975825572557
 6  18.91892729222922  1.18126997379738  0.65625798749875
 6  20.40854853465347  1.40464620922092  0.15883548714871
 6  20.44753498239824  2.23473912191219 -1.12246806820682
 6  21.19993786788679  1.86622099149915  1.27231393299330
 1 -3.92446270477048  3.47211559325933  1.19366388738874
 1 -10.14815856755676  4.01895947984799 -0.29718402100210
 1 -10.32668192999300 -2.33382343704370 -1.04964851235123
 1 -2.55266395709571 -1.06194585828583  2.12559979857986
 1 -2.29688932693269  1.70693918251825  1.07527189368937
 1 -1.95156888018802  0.97374286328633  3.52240245364536
 1 -2.97288207440744  2.36413587018702  3.48135270277028
 1 -3.77325830703070  0.65314968266827  3.31085496999700
 1 -2.17933045994599 -1.75028094849485 -0.33305829182918
 1 -2.03127732993299 -0.10535844454445 -0.65993109470947
 1 -0.61842893689369  0.49274719821982  1.15177742964297
 1 -0.41379733343334 -1.31761473687369  1.47506038193819
 1 -4.68485065276528  6.25360053515352  0.49375115731573
 1 -6.05253992429243  6.68400819961996  1.87247193639364
 1 -4.77683091189119  5.50771594299430  2.08643232193219
 1 -9.67814531343134  6.03946688278828  0.52242008650865
 1 -8.89453009340934  8.06851544104410 -0.15333474017402
 1 -7.08322335893589  7.18572914211421 -0.25953042364236
 1 -12.14488990179018  3.05335264056406 -2.24432073047305
 1 -13.25819103260326  2.08972461056106 -1.58519204290429
 1 -12.52190915231523  3.31030411581158 -0.62833433143314
 1 -12.36613914201420 -1.81599399759976 -1.12062227012701
 1 -13.21844784838484 -0.26208002100210 -1.44320167716772
 1 -13.29756022222222 -1.64441568076808 -3.66012901060106
 1 -12.37882805680568 -0.14081280718072 -3.95183275827583
 1 -11.40853420102010 -1.54016696069607 -3.79398851435143
 1 -9.10587148304831 -4.78129097739774 -1.87939552095209
 1 -7.72157585858586 -5.58938904710471 -1.30350457855786
 1 -9.42849501530153 -5.21985877287729 -0.14033228942894
 1 -3.48148828082808 -3.50610219471947 -0.20298695169517
 1 -1.40578166816682 -4.49719809710971  3.58288497549755
 1 -3.17455264266427 -5.21632227462746  3.89836705880588
 1 -1.80960238673867 -6.17318149524952  2.94395109800980
 1  2.61307597869787 -1.76818650855086 -1.11521559785979
 1  2.41792349254926 -0.10516759835984 -1.79751177097710
 1  4.62783200750075 -0.90575858205821  0.63993636983698
 1  3.96035697199720  1.15536663296330 -2.61680502280228
 1  5.08577187558756  2.17203159335934 -2.25098945354535
 1  5.79927525032503  0.58466879707971 -2.88435973527353
 1  6.61116413971397  1.69030525822582 -0.20177267956796
 1  6.26694004200420  0.22899965106511  0.87949895699570
 1  7.38467220932093 -1.29441051275127 -1.02566669536954
 1  7.92483401440144  0.45122199869987 -1.81357150405041
 1  9.20272636983698  1.14930754725473  0.05109907240724
 1  8.78875669846985 -0.35604395979598  0.94313893249325
 1  10.32515422692269  0.29003376967697 -1.74318814941494
 1  9.06781327772777 -2.36642368666867 -1.52518747994799
 1  10.82278536323632 -2.20194670727073 -2.06881306730673
 1  10.59792726632663 -2.36349797239724 -0.17230932163216
 1  11.23585834803480  0.79309371687169  0.38998096149615
 1  11.33166357605760 -0.80082242034203  0.92076954995499
 1  12.54465020072007 -1.31386824822482 -1.17960629552955
 1  12.65831473747375  0.19807928692869 -1.64307267106711
 1  13.93877538073807  1.12145540104010  0.43278993949395
 1  14.11423751405141 -0.58937137443744  0.85509067876788
 1  15.69031142324232  0.44876473687369 -1.36858651815182
 1  15.95115711671167 -2.24991171707171 -0.14757235483548
 1  14.77948548034804 -2.23530172377238 -1.58307602800280
 1  16.55561361996200 -1.91156508510851 -1.48889099789979
 1  16.26553176287629  1.30425949864986  0.76984040504050
 1  16.62685438743874 -0.15628202390239  1.35411834353435
 1  18.44518371027103 -0.71272823662366  0.05374936733673
 1  17.93983406460646  0.75696695519552 -1.23689717361736
 1  18.39449813261326  2.28533043264326  0.85569066996700
 1  19.17767404480448  0.64312792409241  1.58288464006401
 1  20.56611667836783  0.29920635643564 -0.05395764536454
 1  19.98719555285529  3.10888987388739 -0.88119838933893
 1  21.45364147804781  2.42897877577758 -1.43737499149915
 1  19.80716154935493  1.85562696499650 -1.83684410771077
 1  21.01509152445244  1.17506681048105  2.01281072267227
 1  22.33397803830383  1.75269380058006  1.15007927412741
 1  21.15098763136314  2.89026270247025  1.71088701990199

