%nproc=3
%Mem=2GB
# td=(NStates=10) iop(3/107=0140000000,3/108=0140000000) CAM-B3LYP/6-31G(d,p) 

TD

0 1
12 -7.15136680598060  0.54258249894989  0.01388943754375
 6 -4.80679956105611 -1.92039415071507  0.51102673757376
 6 -4.83930323662366  2.87316164346435  1.13896735393539
 6 -9.38152274107411  3.07339973937394 -0.34318565156516
 6 -9.42905393299330 -1.80416059105911 -0.98292640764076
 7 -5.15857863946395  0.51376263676368  0.75535305570557
 6 -4.35982358765877 -0.64104472487249  0.75977788058806
 6 -2.95681664286429 -0.29327459955996  1.22199764096410
 6 -3.11841213041304  1.05894702720272  1.72880568696870
 6 -4.45756384308431  1.55211559195920  1.19054531573157
 6 -2.96213400440044  1.31443793109311  3.29560308640864
 6 -1.88690297119712 -0.46748075817582  0.10117944374437
 6 -0.52920117411741 -0.28083631503150  0.57531611451145
 6  0.54372375077508 -0.53179661176118 -0.52696434823482
 8  0.13463401310131 -0.74414581838184 -1.71327060736074
 8  1.78339536453645 -0.46970187698770 -0.11732595269527
 7 -7.13793140164016  2.62138354565457  0.31166632343234
 6 -6.18117524852485  3.38888984288429  0.72480046404640
 6 -6.58962695239524  4.80068069846985  0.98613637813781
 6 -7.87270786618662  4.86448633533353  0.38138504550455
 6 -8.19644019721972  3.52120241154115  0.05195553475348
 6 -5.69141492269227  5.90064115541554  1.65949247444744
 6 -8.83238245064507  5.93372844084408  0.34731475337534
 6 -8.38837803560356  7.26193227752775  0.30731646934694
 7 -9.09188422412241  0.66781325962596 -0.59423112841284
 6 -9.87440909990999  1.71711239383938 -0.64369949414942
 6 -11.17313205610561  1.34262525292529 -1.17951270087009
 6 -11.10722924362436 -0.00428655135514 -1.35382464866487
 6 -9.77837772147215 -0.43704219231923 -1.03296259915992
 6 -12.22536077817782  2.36389867076708 -1.35343587448745
 6 -12.29588963466347 -0.72074313651365 -1.84897007420742
 6 -12.13015934793479 -1.24455834103410 -3.37668577397740
 7 -7.17634388648865 -1.36304566616662 -0.11384450315031
 6 -8.18308353065307 -2.34671061056106 -0.60875868176818
 6 -7.74221188868887 -3.54128831173117 -0.64571300030003
 6 -6.44090961296130 -3.53980829632963 -0.13161565366537
 6 -6.12982776097610 -2.17142329682968  0.04678630003000
 6 -8.60593093779378 -4.79091191009101 -0.87802734973497
 6 -5.34241077877788 -4.37514349964997  0.17021552145215
 8 -5.25290665246525 -5.64365701930193  0.37963399819982
 6 -4.17731114111411 -3.27393032713271  0.46318721072107
 6 -3.55121948614861 -3.56853293789379  1.84675585528553
 8 -3.75776943154315 -3.08676190899090  2.87395111041104
 8 -2.53798514641464 -4.66669482198220  1.76967505550555
 6 -2.19312195069507 -5.19882035133513  2.93881521852185
 6  2.80611438803880 -0.69841909960996 -1.13021839673967
 6  4.17119044144415 -0.55991984138414 -0.46055858455846
 6  5.06801040844084  0.32248557305731 -0.84654455465547
 6  4.94092150875087  1.35136967326733 -1.93575066616662
 6  6.40214667226723  0.26095490239024 -0.03123981018102
 6  7.70370810971097 -0.08656053795380 -0.96834650335033
 6  8.94538362076208 -0.16247598109811 -0.14829742394239
 6  10.16628752175217 -0.62285938423842 -0.81475787018702
 6  10.14644183038304 -2.16542587748775 -1.18224988648865
 6  11.48968008510851 -0.32934382498250  0.00313051175118
 6  12.82908007700770 -0.38259477537754 -0.78847938773877
 6  13.96944263206321 -0.11995875907591  0.07872508550855
 6  15.36586193019302 -0.22428504020402 -0.52442549284928
 6  15.69241334353435 -1.76460924672467 -0.69900718051805
 6  16.43807706170617  0.33102748884888  0.39009819451945
 6  17.76570227452745  0.60578870467047 -0.26357463736374
 6  18.83522892239224  1.27276912371237  0.58550091179118
 6  20.27019469926993  1.25921166576658  0.07100670427043
 6  20.35787601650165  2.08860450845085 -1.21203702510251
 6  21.27781565566557  1.87035140454045  1.07430413201320
 1 -4.00999125762576  3.50327870957096  1.41131565256526
 1 -10.13203695539554  3.93453103700370 -0.50694499709971
 1 -10.16895615741574 -2.58170822552255 -1.11527507500750
 1 -2.82070076077608 -0.88166783048305  2.16062330093009
 1 -2.32538217621762  1.61358984758476  1.19424379087909
 1 -1.87139086238624  1.14746023502350  3.67748796219622
 1 -3.21386617281728  2.35339479607961  3.80589515701570
 1 -3.67299828102810  0.51056542424242  3.73872775727573
 1 -2.11246377327733 -1.52990891129113 -0.18832381838184
 1 -2.37158136033603  0.10402249354936 -0.70507560916092
 1 -0.39069616361636  0.78612653615362  0.83736598849885
 1 -0.36392234593459 -0.99825280068007  1.39614249014901
 1 -4.82104427212721  6.04354953005301  1.01565334753475
 1 -6.43873854415441  6.73399319811981  1.84990968016802
 1 -5.21439466826683  5.43642881428143  2.58968264696470
 1 -9.94974247314731  5.82868580468047  0.40171801630163
 1 -9.15818645904590  8.03750233973397  0.40029062236224
 1 -7.20228526512651  7.54557512671267  0.36294182358236
 1 -11.80551596439644  3.35502280758076 -1.87723402180218
 1 -12.99005421892189  1.76888252635264 -2.14894841854185
 1 -12.59432639403940  2.76461954735474 -0.38147964596460
 1 -12.50816334443444 -1.64036643484348 -1.37349755765577
 1 -13.21824782838284 -0.08281209420942 -1.72681003800380
 1 -12.82271273747375 -1.91265250445044 -3.66191918961896
 1 -12.33612378637864 -0.34991371727173 -4.11968954395440
 1 -11.23015636323632 -1.72841578557856 -3.45421453695370
 1 -8.89119001490149 -4.70039288758876 -1.89898748014801
 1 -8.21393509450945 -5.66191629982998 -0.66248047614762
 1 -9.46810897669767 -4.61573836083608 -0.26143439963996
 1 -3.38862899489949 -3.52560414491449 -0.48510516351635
 1 -1.87046813681368 -4.61536991429143  3.78047473447345
 1 -2.89581476887689 -5.82088273067307  3.49784700680068
 1 -1.42978440494049 -5.90321449854985  2.75221192409241
 1  2.51739641074107 -1.73261295119512 -1.48963303960396
 1  2.76697839803980 -0.02255933753375 -1.94697671747175
 1  4.28819804410441 -0.98385639183918  0.67123950015001
 1  3.90107104340434  1.33745484178418 -2.28293163546355
 1  5.29456275467547  2.19100349054906 -1.42275663026303
 1  5.63785910871087  1.13192352255226 -2.87588888818882
 1  6.53583660696070  1.36124235193519  0.40801829952995
 1  6.37913126112611 -0.34502775167517  0.79768077517752
 1  7.42037577967797 -1.15076614831483 -1.58437256595660
 1  7.63353488448845  0.47083395989599 -1.96031617851785
 1  9.04788088528853  0.75786840334033  0.26763072557256
 1  8.92496031883188 -0.89762811821182  0.58574319291929
 1  10.27742945444544 -0.15817105080508 -1.76114994559456
 1  8.95935243164316 -2.32224926922692 -1.54737969916992
 1  10.86276936163616 -2.38694520712071 -1.93679986598660
 1  10.14017149074908 -2.76256787938794 -0.35035712641264
 1  11.17112187438744  0.58939334683468  0.51524348774877
 1  11.42577298699870 -1.11749408750875  0.83029050205020
 1  12.78603433913391 -1.42180904230423 -1.34481281618162
 1  13.04337324332433  0.29808928792879 -1.62840120392039
 1  13.99227073027303  1.06492974847485  0.57051371187119
 1  13.80404649494950 -0.63029546684668  1.23730890059006
 1  15.28674106620662  0.45916577697770 -1.29479913941394
 1  15.83438543954396 -2.31996872277228  0.22884528692869
 1  14.86337386918692 -2.40747894149415 -1.17569528992899
 1  16.57408546714672 -2.07863179177918 -1.21199330813081
 1  16.00344555425542  1.29598867156716  0.86247966896690
 1  16.80192189418942 -0.35849224492449  1.21138407010701
 1  18.19489868176818 -0.32048901270127 -0.67354336193619
 1  17.59601968316832  1.38155941444144 -1.07545102900290
 1  18.45505418821882  2.39063096269627  0.84496959785979
 1  18.72491876927693  0.52794640594059  1.44552090369037
 1  20.73535360206020  0.26896333213321 -0.10606285588559
 1  19.77273410671067  3.14068305320532 -1.18787905740574
 1  21.32010812471247  2.08011388928893 -1.46539779377938
 1  19.69777061026102  1.39104050635064 -2.07691811511151
 1  21.02968298359836  1.64514381818182  2.23581302290229
 1  22.46604124462446  1.57415594679468  0.81164543074307
 1  21.11306383898390  3.07833150935094  1.01448737993799

