--Link1--
#n PBE1PBE/Gen Td Opt=Restart Freq=savenormalmodes

Electric dipole moment (input orientation):(Debye = 10**-18 statcoulomb cm , SI units = C m)                 (au)            (Debye)         (10**-30 SI)  Tot        0.102673D+00      0.260967D+00      0.870494D+00  x          0.898125D-01      0.228280D+00      0.761462D+00  y          0.329887D-01      0.838490D-01      0.279690D+00  z          0.372440D-01      0.946647D-01      0.315767D+00Dipole polarizability, Alpha (input orientation).(esu units = cm**3 , SI units = C**2 m**2 J**-1)Alpha(0;0):              (au)            (10**-24 esu)      (10**-40 SI)  iso        0.898632D+03      0.133164D+03      0.148164D+03  aniso      0.146178D+04      0.216613D+03      0.241015D+03  xx         0.186232D+04      0.275967D+03      0.307055D+03  yx         0.850833D+02      0.126080D+02      0.140283D+02  yy         0.493826D+03      0.731774D+02      0.814209D+02  zx         0.506926D+02      0.751187D+01      0.835809D+01  zy        -0.185645D+00     -0.275097D-01     -0.306087D-01  zz         0.339750D+03      0.503458D+02      0.560172D+02

  0  1
C,12.175554,0.591321,-0.496348
C,-12.120554,-0.082521,0.792956
C,13.429696,-0.275219,-0.339011
C,-13.012371,1.065573,1.274745
C,13.139957,-1.753487,-0.482405
C,-13.317667,2.070746,0.186639
C,10.981343,-0.010294,0.259173
C,-10.930026,0.448804,-0.019585
C,12.197654,-2.174986,0.624708
C,-12.025622,2.687874,-0.310463
C,11.03732,-1.24518,0.820154
C,-10.917975,1.70038,-0.544546
C,11.819189,0.729089,-1.981247
C,12.521599,1.98246,0.0492
C,-12.939154,-1.052688,-0.068125
C,-11.629966,-0.827427,2.038717
C,9.809556,0.841678,0.329391
C,-9.864824,-0.517005,-0.213359
C,9.991996,-1.807173,1.732213
C,-9.828438,2.229253,-1.424988
C,8.50881,0.44559,0.273402
C,-8.524428,-0.28885,-0.220747
C,7.370611,1.301918,0.328551
C,-7.510191,-1.27761,-0.390293
C,7.573139,2.771904,0.510419
C,-7.908524,-2.69684,-0.638393
C,6.118995,0.73076,0.208054
C,-6.191936,-0.876378,-0.312422
C,4.867229,1.365526,0.23423
C,-5.034049,-1.661125,-0.43735
C,3.676142,0.679436,0.100929
C,-3.762473,-1.133772,-0.336597
C,2.392169,1.249243,0.122479
C,-2.550711,-1.840807,-0.441984
C,2.253639,2.730653,0.311353
C,-2.581515,-3.316645,-0.689988
C,1.221174,0.496164,-0.023599
C,-1.360616,-1.127936,-0.30544
C,1.115927,-0.878899,-0.224425
C,-0.058507,-1.621399,-0.361092
H,13.860882,-0.098251,0.654232
H,14.176881,0.056226,-1.067571
H,-12.505378,1.580791,2.09985
H,-13.933375,0.642938,1.690437
H,14.063819,-2.33732,-0.441395
H,12.683815,-1.956959,-1.456662
H,-13.991462,2.848628,0.556988
H,-13.835403,1.581942,-0.644723
H,12.74673,-2.257195,1.575171
H,11.803913,-3.182932,0.439645
H,-11.669854,3.436982,0.414012
H,-12.20011,3.249049,-1.235103
H,11.638113,-0.243646,-2.443883
H,12.631321,1.221264,-2.525129
H,10.912711,1.325183,-2.109857
H,12.654225,1.960174,1.133932
H,11.763826,2.730745,-0.190059
H,13.460001,2.322788,-0.398234
H,-13.365979,-0.555124,-0.940964
H,-13.757778,-1.479882,0.519064
H,-12.327921,-1.882434,-0.430422
H,-10.980253,-0.190887,2.644466
H,-11.071673,-1.731531,1.788967
H,-12.48516,-1.123392,2.653821
H,9.997356,1.910326,0.359756
H,-10.186224,-1.553071,-0.28491
H,9.342572,-1.041732,2.154566
H,10.478984,-2.346236,2.552568
H,9.358597,-2.542409,1.220966
H,-9.233049,1.438488,-1.878992
H,-9.144572,2.884075,-0.870502
H,-10.258822,2.843246,-2.222028
H,8.293754,-0.610927,0.14203
H,-8.16808,0.721522,-0.043671
H,8.13375,2.978877,1.427271
H,6.633777,3.318447,0.563499
H,8.154294,3.190817,-0.318083
H,-8.55023,-2.774282,-1.521462
H,-8.480506,-3.095564,0.206377
H,-7.050851,-3.348357,-0.79253
H,6.098811,-0.350277,0.0764
H,-6.026166,0.184281,-0.128155
H,4.830642,2.441717,0.364816
H,-5.138208,-2.725736,-0.61711
H,3.750674,-0.396454,-0.029458
H,-3.682737,-0.063309,-0.154497
H,2.698888,3.057799,1.256546
H,1.205017,3.02953,0.31411
H,2.757992,3.284955,-0.486912
H,-3.134352,-3.546384,-1.605896
H,-3.085539,-3.839989,0.128655
H,-1.585817,-3.742986,-0.791248
H,0.295213,1.062198,0.023568
H,-1.481666,-0.0616,-0.131504
H,2.03603,-1.451233,-0.287939
H,0.075665,-2.685681,-0.522244

