--Link1--
%Mem=30GB
%CPU=0-29
%OldChk=cla-s0.chk
%Chk=cla-charged.chk
#n wB97XD/Def2TZVP Opt Geom=Checkpoint Guess=Read

cla-charged

  1  2

