--Link1--
%Mem=7GB
%CPU=0-6
%OldChk=cla-s0.chk
%Chk=cla-s0-sp.chk
#n wB97XD/Def2TZVP Geom=Checkpoint 

cla-s0-sp

  1  2

