%nproc=4
%Mem=2GB
# td(NStates=1) CAM-B3LYP/6-31G(d,p) nosymm

neoxanthin-abs Single Point

0 1
O  11.49201253   0.67751441  -1.06221283
O  12.98430988  -2.39099130   1.26494638
O -10.24890864  -0.70758307   2.14876985
O -14.22639298  -1.27730712   0.39601173
C  10.78975612  -0.46745323  -0.51761467
C  11.75408622   0.37570283   0.26528674
C  11.21262882  -1.78715638  -1.12119691
C  13.25002124  -0.15911603   0.44569410
C  12.66117152  -1.89371653  -1.22964060
C  13.42571993  -1.54354056   0.13995891
C  11.48838275   1.50961853   1.33131383
C   9.31240098  -0.19527235  -0.34334795
C  10.44055287  -2.92200055  -0.45464486
C  10.70727178  -1.71798208  -2.56030708
C   8.68779185  -0.35147591   0.85156057
C   7.28597989   0.00475149   1.16934344
C   6.52745775  -1.09935550   1.87126806
C   6.61000569   1.04420144   0.55782792
C   5.14836767   1.30908345   0.51665890
C -11.82487283  -0.48174240  -1.34346627
C -11.39536519  -0.54059838   1.33853054
C -12.41008525  -1.91491415  -1.19406036
C -13.11321269  -2.10582574   0.14229554
C -12.08646465  -1.92839854   1.29225079
C -10.99655111  -0.21328019  -0.06894064
C -10.94247862  -0.55392158  -2.54925798
C -12.86514970   0.61970735  -1.63898010
C -12.32176541   0.54104847   1.95191009
C   4.78470229   2.55160077   0.07516358
C  -9.88442673   0.49246855  -0.24902045
C   3.33640429   2.89384168  -0.08440281
C  -8.76106877   1.15155869  -0.15427728
C   3.08829017   4.41815340  -0.09375497
C   2.38159374   1.94305640   0.04455337
C  -7.40631934   0.45659600  -0.11897458
C  -7.48432445  -1.07440534  -0.28512424
C  -6.22620236   1.09888372  -0.11934707
C   0.96070295   2.29992800   0.11703710
C  -4.92586058   0.43743514  -0.23383132
C   0.02360489   1.30955102  -0.09069051
C  -3.79448422   1.21634862  -0.09402524
C  -1.43947774   1.52277419  -0.05236251
C  -2.46118199   0.68495658  -0.04529811
C  -2.33986092  -0.75509055  -0.18267211
H  13.69542901   0.25058328   1.52525064
H  13.70924487   0.48125789  -0.28429361
H  12.87640959  -3.01551890  -1.50981596
H  12.87539706  -1.26174247  -2.18042263
H  14.58572833  -1.90071767   0.04947688
H  11.08173398   1.04372999   2.38302547
H  12.27513490   2.34936585   1.26342055
H  10.64252854   2.06813979   0.77151775
H   8.73012486   0.18858382  -1.04249784
H   9.44180974  -2.73692258  -0.77502186
H  11.00314873  -3.86704738  -0.84254696
H  10.62936981  -2.84087961   0.53320344
H  10.82334135  -0.75866470  -3.03853929
H  10.88227428  -2.73917937  -3.13697809
H   9.49701086  -1.85164121  -2.37104567
H  12.13873153  -2.06227243   1.47196857
H   9.25580257  -0.87716383   1.77787911
H   5.46216371  -0.76311585   2.06418703
H   6.74086609  -2.03661191   1.26551251
H   6.98514773  -1.24152600   2.81901589
H   7.19390755   1.58585767   0.03229327
H   4.60167103   0.61820608   0.98934475
H -13.06762402  -2.17658298  -2.17483151
H -11.40144121  -2.44962033  -1.05914139
H -13.41868986  -3.23419563   0.15542805
H -12.59996604  -2.03689675   2.29330356
H -11.50258412  -2.74232361   1.14566311
H -11.50797289  -0.55327380  -3.55590221
H -10.36218040   0.49809048  -2.60682587
H -10.21989486  -1.38518485  -2.50177703
H -13.68615703   0.38061635  -0.88134618
H -12.34977820   1.45884443  -1.77006118
H -13.41537885   0.37976002  -2.65819662
H -12.57252397   0.35535998   2.85421418
H -11.86266613   1.49445661   2.02645369
H -13.13875903   0.67501638   1.36340746
H   5.55729797   3.20438707  -0.33800742
H  -9.57559007   0.09860957   2.23374078
H -14.93037711  -1.65399392  -0.11552594
H  -8.70205519   2.15954008   0.02095487
H   2.05150662   4.59780927  -0.47523204
H   3.29668174   4.96903413   0.87811726
H   3.84514505   4.66175784  -0.80047658
H   2.63432533   0.87535734  -0.01821826
H  -6.58506462  -1.57519447  -0.45801075
H  -8.10619551  -1.47404019   0.66935892
H  -7.91770577  -1.26251072  -1.39787221
H  -6.17276075   2.00740537  -0.06723884
H   0.53670710   3.27455875  -0.03473337
H  -4.76315684  -0.73160896  -0.39937081
H   0.28439380   0.23475208  -0.17474506
H  -3.86590049   2.31194824   0.22937009
H  -1.82613662   2.68491761   0.20307163
H  -1.30780355  -1.24037933  -0.12698814
H  -2.87637671  -1.35147182   0.55098475
H  -2.81315901  -0.98763614  -1.31449548




