%nproc=4
%Mem=2GB
# td(NStates=1) CAM-B3LYP/6-31G(d,p) nosymm

neoxanthin-abs Single Point

0 1
 O        11.620736       0.841062      -0.861355
 O        13.087968      -2.474262       1.246662
 O       -10.436293      -0.727284       2.233576
 O       -14.385804      -1.203331       0.444504
 C        10.894206      -0.300976      -0.387216
 C        11.863425       0.422977       0.487825
 C        11.282589      -1.597125      -1.129307
 C        13.272015      -0.107918       0.711244
 C        12.813906      -1.790561      -1.102245
 C        13.488017      -1.543858       0.244079
 C        11.399810       1.407214       1.534578
 C         9.426228      -0.040843      -0.254398
 C        10.559890      -2.824569      -0.551612
 C        10.850373      -1.439659      -2.596494
 C         8.678539      -0.375808       0.799432
 C         7.234674      -0.134683       0.952213
 C         6.504719      -1.172003       1.763181
 C         6.652453       0.950029       0.401285
 C         5.247656       1.296020       0.419474
 C       -11.907212      -0.311210      -1.282568
 C       -11.543541      -0.490188       1.367300
 C       -12.597607      -1.687088      -1.179712
 C       -13.246091      -2.012104       0.164421
 C       -12.253654      -1.846469       1.303352
 C       -11.040213      -0.080673      -0.035172
 C       -11.035077      -0.310115      -2.543967
 C       -12.944145       0.819447      -1.431008
 C       -12.416939       0.598548       1.997485
 C         4.763071       2.418117      -0.143698
 C        -9.859650       0.471955      -0.105043
 C         3.359853       2.828965      -0.201041
 C        -8.647476       0.982521      -0.086592
 C         3.138668       4.316578      -0.287092
 C         2.360673       1.917246      -0.192161
 C        -7.407787       0.197202      -0.137330
 C        -7.560814      -1.297007      -0.136866
 C        -6.228913       0.855113      -0.153282
 C         0.941241       2.171187      -0.192227
 C        -4.902188       0.283333      -0.181890
 C         0.012178       1.191830      -0.207593
 C        -3.783045       1.034030      -0.185203
 C        -1.405895       1.445699      -0.197518
 C        -2.415379       0.541678      -0.204867
 C        -2.203216      -0.946979      -0.228636
 H        13.533429      -0.051313       1.772593
 H        13.950269       0.567697       0.178865
 H        13.043485      -2.806874      -1.437036
 H        13.267638      -1.103174      -1.824064
 H        14.562302      -1.717554       0.127182
 H        11.264536       0.915850       2.503238
 H        12.158191       2.186374       1.659907
 H        10.461022       1.878031       1.248938
 H         8.965484       0.439267      -1.114939
 H         9.477251      -2.722838      -0.644604
 H        10.864481      -3.717323      -1.104736
 H        10.794794      -3.010170       0.497062
 H        11.273021      -0.528667      -3.027007
 H        11.199781      -2.292977      -3.185562
 H         9.761688      -1.395870      -2.691769
 H        12.244402      -2.179581       1.607279
 H         9.155959      -0.904021       1.625765
 H         5.465876      -0.909569       1.959336
 H         6.519510      -2.144087       1.257990
 H         6.999538      -1.313555       2.730322
 H         7.298713       1.658755      -0.112688
 H         4.556746       0.621342       0.915968
 H       -13.343410      -1.772600      -1.981457
 H       -11.852315      -2.467761      -1.374179
 H       -13.554922      -3.068205       0.143718
 H       -12.753341      -2.033791       2.257797
 H       -11.473846      -2.605506       1.189862
 H       -11.651502      -0.507397      -3.426455
 H       -10.543981       0.655723      -2.683966
 H       -10.257791      -1.077062      -2.491103
 H       -13.656176       0.836628      -0.608485
 H       -12.441686       1.788923      -1.483986
 H       -13.508046       0.682043      -2.360313
 H       -12.639456       0.312204       3.028533
 H       -11.878637       1.551374       2.009139
 H       -13.359558       0.727949       1.468785
 H         5.477615       3.115297      -0.581775
 H        -9.882089       0.064609       2.221842
 H       -15.013968      -1.311931      -0.279182
 H        -8.535678       2.064920      -0.023923
 H         2.099304       4.586120      -0.470602
 H         3.460095       4.812796       0.635085
 H         3.739853       4.740683      -1.098472
 H         2.641882       0.866191      -0.199251
 H        -6.612239      -1.818304      -0.013747
 H        -8.235757      -1.600132       0.669254
 H        -8.016178      -1.637210      -1.073250
 H        -6.265678       1.943769      -0.141046
 H         0.598010       3.202395      -0.169792
 H        -4.814837      -0.798139      -0.200811
 H         0.356368       0.160885      -0.224682
 H        -3.893637       2.117536      -0.168755
 H        -1.686195       2.498100      -0.179842
 H        -1.149767      -1.221915      -0.242704
 H        -2.659625      -1.416249       0.648907
 H        -2.675839      -1.390268      -1.111062




