--Link1--
%CPU=16-31
%Mem=15GB
%OldChk=cla-s0-01200.chk
%Chk=cla-s0-tunado.chk
# wB97XD/Def2TZVP Geom=Checkpoint Guess=Read iop(3/107=0120000000,3/108=0120000000) Opt 

cla-charged

1 2

--Link1--
%CPU=16-31
%Mem=15GB
%OldChk=cla-s0-tunado.chk
# wB97XD/Def2TZVP Geom=Checkpoint iop(3/107=0120000000,3/108=0120000000) Sp

cla-charged-sp

0 1

