--Link1--
%nproc=16
%Mem=15GB
%OldChk=cla-s0-01200.chk
%Chk=cla-s0-tunado.chk
# wB97XD/Def2TZVP Geom=Checkpoint Guess=Read Opt iop(3/107=0120000000,3/108=0120000000)

cla-s0

0 1

--Link1--
%nproc=16
%Mem=15GB
%OldChk=cla-s0-tunado.chk
# wB97XD/Def2TZVP Geom=Checkpoint iop(3/107=0120000000,3/108=0120000000)

cla-s0-sp

1 2


