%nproc=4
%Mem=2GB
# td=(NStates=1) CAM-B3LYP/6-31G(d,p) 

TD

0 1
12 -7.19433110241024  0.57553579427943  0.31000904950495
 6 -4.71449033013301 -1.97130924222422  0.38493412831283
 6 -4.85829513581358  2.78144247154715  1.18337179437944
 6 -9.42909749854985  3.15309770917092 -0.31937327032703
 6 -9.49362038963896 -1.66261643664366 -0.64199231423142
 7 -5.11404418601860  0.41078233873387  0.88019553995400
 6 -4.29061666696670 -0.67127774817482  0.76259816261626
 6 -2.91470243144314 -0.36369164126413  1.22765820702070
 6 -2.98305859505951  1.13214434693469  1.66085889228923
 6 -4.41119920662066  1.47181756215622  1.17171343254325
 6 -2.84197198819882  1.39385587288729  3.11370489658966
 6 -1.83177745864586 -0.76870088018802  0.06375570137014
 6 -0.43116137013701 -0.53515174657466  0.45520410331033
 6  0.50688006640664 -0.74528796089609 -0.63160481228123
 8  0.22044259395940 -1.04931633543354 -1.80251953225323
 8  1.82823984898490 -0.59535444224422 -0.19573379347935
 7 -7.17717532603260  2.57346875417542  0.47503266006601
 6 -6.13693082408241  3.32531348524852  0.84300228422842
 6 -6.35659364906491  4.73813444384438  0.84145190969097
 6 -7.64489508490849  4.84157404410441  0.31383829082908
 6 -8.16256680988099  3.47826811811181  0.08746908610861
 6 -5.54775055625563  5.91876296759676  1.27301382658266
 6 -8.51522073447345  6.05247031503150  0.16441646354635
 6 -8.10152935073507  7.33617970227023 -0.15344960726073
 7 -9.20446548224822  0.71661814011401 -0.24523622892289
 6 -9.97806946594659  1.84703538613861 -0.46191131533153
 6 -11.22690743364337  1.45913690409041 -1.06810155975598
 6 -11.22819133983398  0.05329920722072 -1.10594986118612
 6 -9.97904778847885 -0.37472596069607 -0.61993129602960
 6 -12.31617986008601  2.51956423732373 -1.43271380228023
 6 -12.39130917661766 -0.81969303150315 -1.54128930613061
 6 -12.41252758475848 -0.96808069326933 -3.08985709110911
 7 -7.20343659575958 -1.38072743434343 -0.11094421312131
 6 -8.18140336263626 -2.21319725922592 -0.53839164506451
 6 -7.79452712021202 -3.67390157305731 -0.52026045504550
 6 -6.41439696169617 -3.51357567306731 -0.20013250535054
 6 -6.06890166836684 -2.24818097259726  0.03532515391539
 6 -8.60313065776578 -4.95545836473647 -0.77557710471047
 6 -5.15375191289129 -4.24285027032703 -0.07087858795880
 8 -5.02249361116112 -5.43351600520052 -0.14968893409341
 6 -4.07283069306931 -3.28707164126413  0.36247713971397
 6 -3.54134849904991 -3.71158724332433  1.71298247794780
 8 -3.81528518311831 -3.10231346414641  2.67469118441844
 8 -2.62288363626363 -4.76569472197220  1.73369145714571
 6 -2.10159279777978 -5.16655712501250  2.93736507350735
 6  2.81091486808681 -0.77541679937994 -1.21665704060406
 6  4.17844116651665 -0.64599844924492 -0.60899342804280
 6  5.13674728212821  0.28205152965297 -0.90207010721072
 6  5.02776019261926  1.16546108240824 -2.12838993009301
 6  6.32054851245124  0.37418622552255 -0.10709739593959
 6  7.50046778567857 -0.10224210611061 -0.96466613531353
 6  8.89071815421542 -0.05725545904590 -0.26483907810781
 6  10.17335822882288 -0.51738883718372 -0.99499589398940
 6  9.95903308950895 -2.00382971787179 -1.37265892739274
 6  11.40397151425143 -0.37630852145215 -0.09878968026803
 6  12.79234640364036 -0.56949346524652 -0.75805634543454
 6  13.91478716651665 -0.06853361656166  0.19175638863886
 6  15.33584892889289 -0.22119473117312 -0.51384443474347
 6  15.57667176937694 -1.71004379017902 -0.69184646444644
 6  16.29467272127212  0.54874926102610  0.46899608430843
 6  17.77025272957296  0.53921204700470  0.02180390049005
 6  18.77802320182018  1.35593744054405  0.89322168386839
 6  20.10962864266427  1.35546129072907  0.23311291489149
 6  20.26074630353035  2.23755940394039 -0.97848366976698
 6  21.08076595069507  2.03313768316832  1.26171287288729
 1 -4.01021127962796  3.51190957265727  1.61833635463546
 1 -9.81490524222422  4.12342992689269 -0.88129243184318
 1 -10.29163842564256 -2.34502455715572 -0.90040358785879
 1 -2.61545023572357 -1.08888855255526  1.86743398199820
 1 -2.05796543454345  1.44434292289229  1.16267063356336
 1 -2.04164788808881  0.96002149114911  3.68544875827583
 1 -2.89693447964796  2.61971142774277  3.34740930843084
 1 -3.71398237943794  0.80960532823282  3.51113499799980
 1 -1.89232175907591 -1.89290521092109 -0.17359234523452
 1 -2.27856205840584 -0.29833774247425 -0.96493159475948
 1 -0.42491958595860  0.65117304080408  0.74504675657566
 1 -0.22458841254125 -1.04006698209821  1.23557643354335
 1 -5.08327049474948  6.56946212131213  0.40366214841484
 1 -6.14317898819882  6.68477827662766  1.56517120632063
 1 -4.68291151995199  5.54510968236824  1.99349302800280
 1 -9.50761826072607  5.93476641274127  0.28868671317132
 1 -8.84317495789579  8.05338392789279 -0.23005241194119
 1 -7.06018105470547  7.72865343454346 -0.19006347694769
 1 -12.01301671447145  2.73928123342334 -2.50447674607461
 1 -13.46147136063606  2.13475911401140 -1.65691921562156
 1 -12.34008096949695  3.19208229362936 -0.62301379937994
 1 -12.15372790089009 -1.76682908110811 -0.82138234613461
 1 -13.40750675427543 -0.51980579357936 -1.04480183718372
 1 -13.46874734093409 -1.45832707190719 -3.43760675837584
 1 -12.48537871187119 -0.06380510641064 -3.64349192419242
 1 -11.59621296889689 -1.37487043104310 -3.54283339883988
 1 -9.21812270817082 -4.81453430173017 -1.65616319771977
 1 -7.91152485348535 -5.84005411361136 -0.88433266136614
 1 -9.44182634843484 -5.31127791479148  0.03569531333133
 1 -3.27374750675068 -3.46328791329133 -0.40450710371037
 1 -1.53853494349435 -4.42083046034603  3.36780346734673
 1 -2.83251843924392 -5.49840048244825  3.77766498859886
 1 -1.40850227672767 -6.01008518561856  2.76100280318032
 1  2.62822749384938 -1.85951564146415 -1.59150322662266
 1  2.43598529872987  0.01630454885489 -1.95701772157216
 1  4.32078130243024 -1.17651565776578  0.43404578077808
 1  3.88728966526653  1.52585368166817 -2.40914425672567
 1  5.58758205660566  1.94438882908291 -1.93553790839084
 1  5.33922924572457  0.69867019721972 -3.16394769406941
 1  6.52722574587459  1.43033926162616  0.18603610131013
 1  6.37292064006401 -0.44396764566457  0.77186819391939
 1  7.33550729282928 -1.26824789648965 -1.31288541724172
 1  7.62521405240524  0.42437931443144 -1.90053019991999
 1  9.10445654285428  0.91492410891089  0.23658762126213
 1  8.82636045884589 -0.54772312771277  0.69516413501350
 1  10.49213092459246 -0.01145637933793 -1.81154498509851
 1  8.99446594299430 -2.03620066436644 -2.06092105330533
 1  10.83514659935994 -2.25132164476448 -1.94517070307031
 1  9.87567504110411 -2.75259688228823 -0.55855794649465
 1  11.35619038123812  0.68735314281428  0.40127209060906
 1  11.26406681638164 -1.01997433553355  0.80874834783478
 1  12.90759649534954 -1.58917577897790 -1.08413674857486
 1  12.96251515751575 -0.06665718671867 -1.46823518731873
 1  13.62112361556156  0.91618487398740  0.54105076557656
 1  14.09972606290629 -0.55794823212321  1.09962513221322
 1  15.32251464356436  0.39208906930693 -1.64681434093409
 1  15.55689769076908 -2.48856558245825  0.15291769416942
 1  14.92746027782778 -2.00457865146515 -1.46351407180718
 1  16.77045510411041 -1.76367029562956 -0.97181929072907
 1  15.89440465016501  1.43042211491149  0.54045746674667
 1  16.04090579257926 -0.11322771847185  1.57190012171217
 1  18.16857604950495 -0.51878884268427 -0.13628963656366
 1  17.68153823502350  1.11341259975998 -1.05046853075308
 1  18.33649233203320  2.33591549114911  1.11037613851385
 1  18.76831310871087  0.97917152845285  1.75741209280928
 1  20.57694776147614  0.15959239503950 -0.03419566916692
 1  20.13405023832383  3.22272125702570 -0.82834310381038
 1  21.13138925282528  2.12077795569557 -1.52587384138414
 1  19.38930976417642  1.89074047634763 -1.80543096639664
 1  20.93688370367037  1.44394369816982  2.14303374497450
 1  22.19779441994200  2.11389992119212  1.24175844204420
 1  20.58600113271327  2.83725740194019  1.55215114631463

