%nproc=4
%Mem=2GB
# td=(NStates=1) CAM-B3LYP/6-31G(d,p) 

TD

0 1
12 -7.17786945624562  0.59568780948095  0.14626267486749
 6 -4.83125200630063 -1.93276538783878  0.42052768766877
 6 -4.72377168346835  2.80000432773277  1.15058851605160
 6 -9.45681026982698  3.06660906030603 -0.31081241424142
 6 -9.55214624222422 -1.76187636263626 -0.85686380138014
 7 -5.16192897449745  0.47394865536554  0.58206572697270
 6 -4.38156576187619 -0.71267188758876  0.74655655845585
 6 -2.97046800800080 -0.41393666576658  1.21002644384438
 6 -3.05279556875688  1.05312644514451  1.70984379077908
 6 -4.47199528622862  1.45958633903390  1.08815507670767
 6 -2.98919671067107  1.21115760306031  3.19964349044904
 6 -1.88287256815682 -0.70047405750575  0.09644897069707
 6 -0.51282953695370 -0.57586581798180  0.77137572047205
 6  0.54025340374037 -0.79625305740574 -0.44107575937594
 8  0.23116366606661 -1.02913431723172 -1.53142242254225
 8  1.73616064106411 -0.38157306410641 -0.14984920502050
 7 -7.05264287278728  2.60843225052505  0.33050820762076
 6 -5.99740687168717  3.34865581948195  0.77470545454545
 6 -6.38136612631263  4.83375400580058  0.72220998549855
 6 -7.73105370077008  4.84219410611061  0.38490539753975
 6 -8.12578313151315  3.44152444374437  0.03903424262426
 6 -5.55432121332133  5.95351644294429  1.32902942814281
 6 -8.60976018841884  5.98341340934093  0.21881190309031
 6 -8.21998119591959  7.36414249854985  0.19916565426543
 7 -9.15883091879188  0.66490296859686 -0.55451715701570
 6 -9.94746640564056  1.66773745634563 -0.51298642284228
 6 -11.28129287218722  1.46714770517052 -1.03083783338334
 6 -11.27270579127913  0.04749862716272 -1.28277754395440
 6 -9.98745862956296 -0.39226771487149 -0.98631793469347
 6 -12.26286452855286  2.62488476937694 -1.21006153705371
 6 -12.36940698639864 -0.71657271947195 -1.80099527672767
 6 -12.45975230723072 -1.11405529072907 -3.27191529692969
 7 -7.19203545564556 -1.34900426202620 -0.07945106380638
 6 -8.33342856515652 -2.23493943344334 -0.50301810771077
 6 -7.81289895739574 -3.60898508140814 -0.54590301930193
 6 -6.50244576657666 -3.52786710221022 -0.09500199229923
 6 -6.24548932713271 -2.20463661816182  0.03799542094209
 6 -8.60634097879788 -4.82641546044604 -0.88954850185019
 6 -5.33304984268427 -4.35906189148915  0.18068656855686
 8 -5.22067342914291 -5.51369402300230  0.19982601740174
 6 -4.14656806680668 -3.26051898599860  0.46656754875488
 6 -3.48282264646465 -3.59587567216722  1.73311449114911
 8 -3.70418407300730 -3.09068230103010  2.85986970227023
 8 -2.77382873077308 -4.67695584808481  1.64436252425243
 6 -2.09070170867087 -5.21841231053105  2.80341167816782
 6  2.79816359295930 -0.66795605330533 -1.16887226212621
 6  4.16835015741574 -0.52378622802280 -0.54288681738174
 6  5.17896150355035  0.26382970747075 -0.97823772397240
 6  5.13850126672667  1.14041857815782 -2.15968305940594
 6  6.44479093669367  0.22614142104210 -0.16652333853385
 6  7.73875161406141 -0.36954883678368 -0.95118478717872
 6  8.91945102750275 -0.26845657915792 -0.03572616681668
 6  10.20859175217522 -0.56659375767577 -0.75357175157516
 6  10.06375356155616 -1.96267560246025 -1.28041970347035
 6  11.49794091119112 -0.34689558015802  0.12789298799880
 6  12.84855202420242 -0.34813132903290 -0.58005854565457
 6  13.94044973277328  0.00601383818382  0.19291650465047
 6  15.27660300430043 -0.02542515421542 -0.57075012531253
 6  15.70380448264827 -1.50655344114411 -0.74984226402640
 6  16.43882713671367  0.49150353645365  0.33620280498050
 6  17.84976068036804  0.65956408220822 -0.24779305920592
 6  18.84782018151815  1.29619146594659  0.64171653335334
 6  20.20031771157116  1.38208395299530  0.07350695429543
 6  20.38037826672667  2.18633428142814 -1.19247506890689
 6  21.13351122522252  1.78754312371237  1.27220392199220
 1 -3.91318157665767  3.47298568026803  1.23358787978798
 1 -10.16308005970597  3.91155873977398 -0.39683398599860
 1 -10.32246150795079 -2.62605265996600 -1.12784633213321
 1 -2.97545623632363 -1.14820448414842  2.02016925552555
 1 -2.27294693269327  1.95583407200720  1.05240960746075
 1 -2.00387411071107  0.92164765376538  3.64543475687569
 1 -3.14831961816182  2.22046150275028  3.58259282678268
 1 -3.79859084028403  0.63000736843684  3.56299018351835
 1 -2.08746127302730 -1.71396731713171 -0.27589257525753
 1 -1.96349055125513  0.04679677097710 -0.61237633923392
 1 -0.11485857985799  0.34261218471847  1.04296654855486
 1 -0.23805975967597 -1.21547452285229  1.65388826472647
 1 -5.00996316401640  6.44944011911191  0.66308809100910
 1 -6.24023869416942  6.78660845964596  1.69808449764976
 1 -5.06704993379338  5.26045121652165  2.20640431913191
 1 -9.63693119201920  5.54889782588259  0.31064890939094
 1 -8.89997063746375  8.09994858435843  0.20559115241524
 1 -7.23498853545354  7.75960652985299  0.27296282568257
 1 -12.23250866366637  3.11805911121112 -2.19756605500550
 1 -13.32779799329933  2.05939157725773 -1.33419694339434
 1 -12.16231319271927  3.13920700610061 -0.36240773877388
 1 -12.31660418851885 -1.64019641784178 -1.09924013191319
 1 -13.38130413401340 -0.19823363636364 -1.34412176917692
 1 -13.49425989218922 -1.39869110831083 -3.53663666136614
 1 -12.45119529352935 -0.10722944884488 -3.99456703170317
 1 -11.60281362896290 -1.78777172117212 -3.56968608410841
 1 -8.74709560546055 -4.91995484378438 -2.05298287968797
 1 -8.00889459045904 -5.79764987318732 -0.64475870397040
 1 -9.67574974077408 -4.65574236123612 -0.48213646984698
 1 -3.53993412541254 -3.52165374987499 -0.35054170717072
 1 -1.35997708770877 -4.62582095939594  3.26439312631263
 1 -3.03750893829383 -5.43895453785379  3.45683290539054
 1 -1.70421184768477 -6.24264844194419  2.42966966986699
 1  2.56265093619362 -1.55035472537254 -1.35139921622162
 1  2.65003670387039 -0.01027810941094 -2.07904992479248
 1  4.42256148044804 -1.07104511071107  0.37530990719072
 1  4.05603653995400  1.21173226952695 -2.41043438573857
 1  5.64488778717872  2.01326571677168 -2.07638199279928
 1  5.70942626542654  0.65491582178218 -2.78560986028603
 1  6.50953397669767  1.21216744444445  0.49232673037304
 1  6.23190653865387 -0.42511576047605  0.71824283138314
 1  7.57156089818982 -1.45355642734273 -1.12676680538054
 1  7.85552708370837  0.29902677917792 -1.90196034293429
 1  9.27699379657966  0.71599421592159  0.52578654115412
 1  8.69545736853685 -0.91011936733673  0.74331895049505
 1  10.33364507600760  0.30233499979998 -1.59590342094209
 1  9.15356185258526 -2.21106815111511 -1.95630059125913
 1  10.93746683138314 -2.19236574917492 -1.80897708370837
 1  9.90718819241924 -2.60907252985298 -0.46664875557556
 1  11.28748351055105  0.65042945044504  0.59109107250725
 1  11.56436684638464 -0.91662400050005  1.04725219821982
 1  13.02247798349835 -1.39087594899490 -1.06701503640364
 1  12.71810071607161  0.17678715771577 -1.52925128892889
 1  13.90795229842984  1.06320957645765  0.58161482198220
 1  14.09747583788379 -0.81727416471647  0.88741391109111
 1  15.22109450155016  0.19648950935094 -1.57046670617062
 1  15.62273427442744 -2.09115584148415  0.06640904330433
 1  15.12855038683868 -2.05864405800580 -1.52577029742974
 1  16.67214527312731 -1.55157908650865 -1.05210731953195
 1  16.03817902760276  1.47545661836184  0.57661108210821
 1  16.60768247024702 -0.07127352305230  1.41378431013101
 1  18.48169736163617 -0.25811277507751 -0.47893390099010
 1  17.74604468566857  1.22677393589359 -1.16595007890789
 1  18.66712539533953  2.38914081368137  0.90587568846885
 1  19.02363864126412  0.70768437973797  1.49049540114011
 1  20.56167623432343  0.45411184698470 -0.13425567516752
 1  20.06119295259526  3.22947193209321 -0.98514878437844
 1  21.47936405030503  2.37963384128413 -1.37240849484948
 1  19.77466830003000  1.93079448174817 -2.12949337263726
 1  21.29401941724172  0.98485778957896  2.05660510211021
 1  22.01313595409541  1.93562209340934  0.73303756995700
 1  20.90380291289129  2.75953963016302  1.71371730293029

