%nproc=4
%Mem=2GB
# td=(NStates=1) CAM-B3LYP/6-31G(d,p) 

TD

0 1
12 -7.12024369366937  0.56958519921992  0.09417746634663
 6 -4.90105898699870 -2.03556566786679  0.49364499939994
 6 -4.76347565386539  2.86349067636764  1.13335679287929
 6 -9.37918250705070  3.16923932333233 -0.34108544154415
 6 -9.60016104370437 -1.75947612261226 -0.79469758475848
 7 -5.05340812241224  0.46823808430843  0.69353687408741
 6 -4.29083668896890 -0.76609723012301  0.71305320812081
 6 -2.77855881708171 -0.46050132223222  1.22312775397540
 6 -2.95775606480648  1.12091322382238  1.65597840424042
 6 -4.31925001170117  1.52933331373137  1.27618387958796
 6 -2.76053384438444  1.23943043034303  3.18606213231323
 6 -1.87166144704470 -0.78444245434543  0.20385971177118
 6 -0.43431168516852 -0.29879811121112  0.59390797369737
 6  0.52358173657366 -0.71620505260526 -0.55692734453445
 8  0.18355890559056 -1.16892829662966 -1.70110939123912
 8  1.83998102310231 -0.41897680448045 -0.25312953305331
 7 -7.03592120062006  2.62844425172517  0.36979213601360
 6 -6.06039317031703  3.35734668856886  0.81706969096910
 6 -6.43776176587659  4.77538816921692  0.96779454395440
 6 -7.78260885628563  4.90381026772677  0.50970787778778
 6 -8.14824537773777  3.42610290159016  0.24059439863986
 6 -5.64793057425743  5.87517860916092  1.50578710391039
 6 -8.59139835223522  5.96673174117412  0.32755277717772
 6 -8.19884908270827  7.27814389868987  0.14983072077208
 7 -9.06261129682968  0.67855433373337 -0.51436314161416
 6 -9.90365202420242  1.85877656025603 -0.63436856105611
 6 -11.11502624552455  1.54163515391539 -1.24873962356236
 6 -11.14395291599160  0.19106298359836 -1.34089335553555
 6 -9.94455433913391 -0.38202669076908 -0.95723502640264
 6 -12.22768101020102  2.46452873377338 -1.57003753465347
 6 -12.23257330303030 -0.67612867506751 -1.88849402660266
 6 -12.11684801680168 -0.93157704290429 -3.38411651705171
 7 -7.25445169726973 -1.35186454805481 -0.14608772747275
 6 -8.34908013031303 -2.26858279777978 -0.47721552745274
 6 -7.90058772627263 -3.63204738763876 -0.45875430443044
 6 -6.54580010201020 -3.53725804130413 -0.11316380848085
 6 -6.17862264046405 -2.27450360486049  0.10627224862486
 6 -8.82319266396640 -4.74232705160516 -0.65573512051205
 6 -5.36830336803680 -4.36589257455746  0.17101560146015
 8 -5.21216257805781 -5.54625727932793  0.27911394619462
 6 -4.19767317731773 -3.33652658675868  0.62730362236224
 6 -3.48766313051305 -3.75606169076908  1.83986516621662
 8 -3.68518217281728 -3.27210044284428  2.98143185848585
 8 -2.72828417631763 -4.79574772727273  1.66226431443144
 6 -2.19937257575758 -5.34353482278228  2.92360369736974
 6  2.82857663426343 -0.67467672537254 -1.22360773567357
 6  4.14391771417142 -0.42614646404640 -0.64310683938394
 6  5.13177678507851  0.35122844734473 -1.04957485768577
 6  5.11973939053905  1.14642917921792 -2.33100019111911
 6  6.37838429602960  0.36724553145315 -0.28792547874787
 6  7.59229696859686 -0.19484136603660 -1.01888155685569
 6  8.75737481988199 -0.12274200770077 -0.18883147734773
 6  10.05903679667967 -0.64879197749775 -0.86207260166017
 6  9.96193337953795 -2.24165350025002 -1.03711537303730
 6  11.30153127022702 -0.28030892149215 -0.09141894319432
 6  12.72648981798180 -0.55501201710171 -0.66563710351035
 6  13.89964565236524 -0.21486825002500  0.21292850585058
 6  15.34722006600660 -0.15470808250825 -0.58337138743874
 6  15.83751785398540 -1.56868965476548 -1.01729900970097
 6  16.33306656065606  0.57104149024902  0.42501168586859
 6  17.71135683998400  0.65793391919192 -0.22941122102210
 6  18.70057545704571  1.49219106590659  0.60831319301930
 6  20.15998367816782  1.45346109070907  0.34879448304830
 6  20.42894312321232  2.23892954095410 -0.99078489988999
 6  21.04354222832283  1.96917128652865  1.30056675827583
 1 -4.14938519701970  3.53841222292229  1.78942346334633
 1 -10.02616636833683  3.90594817871787 -0.38075237783778
 1 -10.36504576637664 -2.43761381608161 -0.86489003650365
 1 -2.67222591329133 -1.06660632433243  2.04239147774777
 1 -2.10031966996700  1.81967045564556  1.15824019051905
 1 -1.69155287858786  1.30126561556156  3.38228844224422
 1 -3.03714850105011  2.25297475407541  3.55593016051605
 1 -3.43437441864186  0.57688205590559  3.83922780728073
 1 -1.96054858175818 -1.89283520392039 -0.06389137513751
 1 -2.43170737293729 -0.30934884358436 -0.77284238583858
 1 -0.37131422542254  0.79744766826683  0.83858611051105
 1 -0.01354730843084 -0.84551752715272  1.56779965586559
 1 -4.93676584428443  6.14081925702570  0.60068185038504
 1 -5.98575324562456  6.67562736153615  2.10643533273327
 1 -4.82024525332533  5.42405757715772  2.10950462916292
 1 -9.72031953085308  5.66803974007401  0.34616246074607
 1 -9.01011165156516  7.92198078757876  0.02474306760676
 1 -7.16744178077808  7.53306387558756  0.37640316971697
 1 -11.92091750455046  3.09260656595660 -2.41092739113911
 1 -13.13467868136814  2.02955859395940 -1.64819834353435
 1 -12.51155811721172  3.08979206460646 -0.73261475947595
 1 -12.38254078217822 -1.54430682888289 -1.25050525842584
 1 -13.14010001360136 -0.22275608860886 -1.86092344934493
 1 -12.79138960516052 -1.83940517971797 -3.47741073877388
 1 -12.46929710371037 -0.09537826372637 -4.01417899289929
 1 -11.21428477607761 -1.38596154015402 -3.47073618911891
 1 -9.43410430633063 -4.91934478277828 -1.68726630803080
 1 -8.26233993499350 -5.62402251045105 -0.73520774887489
 1 -9.53788595439544 -4.84657144414441  0.18050979477948
 1 -3.43947407940794 -3.38406999149915 -0.25873252625263
 1 -1.67515860586059 -4.59226760406041  3.43248993599360
 1 -3.05240042744274 -5.59486012841284  3.68994621672167
 1 -1.55654708120812 -6.09893407050705  2.61992869576958
 1  2.78994366546655 -1.80804049394939 -1.60595467176718
 1  2.65109680988099 -0.06352343394339 -2.12017403720372
 1  4.28894811911191 -1.01096910311031  0.18244062026203
 1  4.02713364966497  1.31068216451645 -2.59111245354535
 1  5.69247254565457  2.12768715891589 -2.29622397699770
 1  5.73465878867887  0.63997432763276 -3.09741104040404
 1  6.61470449374937  1.34312053975398  0.02513001070107
 1  5.91917526552655 -0.27204045294529  0.48523953105311
 1  7.32986672877288 -1.19332040374037 -1.34286841554155
 1  7.84619615061506  0.43818069456946 -1.92188233513351
 1  9.10494659185919  0.86996961346135  0.07476143864387
 1  8.63264108690869 -0.70766912231223  0.70818543714371
 1  10.24749646114612 -0.19329456315632 -1.83552738333833
 1  8.97679417581758 -2.68107515181518 -1.48148310951095
 1  10.76988007270727 -2.83195970857086 -1.51924811081108
 1  9.98826630023002 -2.75174679727973  0.02314022332233
 1  11.28084284648465  0.86914132163216  0.06122808620862
 1  11.37011742144214 -0.79505184328433  0.94516198919892
 1  13.00865660136014 -1.69706656805681 -0.68778711361136
 1  13.04708361436144 -0.12516303730373 -1.62087045084508
 1  13.64890639383938  0.89653290879088  0.59304596509651
 1  13.89491558185819 -0.89425186248625  0.99594476417642
 1  15.34099649174918  0.34860472087209 -1.42362202170217
 1  15.96487848884889 -2.14233095899590 -0.14263186078608
 1  15.30025755755575 -2.04500269386939 -1.94415213561356
 1  16.86677473607361 -1.65216914551455 -1.37716982578258
 1  15.96431164086409  1.55065413811381  0.44313773477348
 1  16.35655735773577 -0.06740313601360  1.32812574427443
 1  18.11579077097710 -0.19474643844384 -0.27079308690869
 1  17.67863794499450  1.05118637713771 -1.22045552945295
 1  18.49689837263726  2.51216311591159  0.94246934783478
 1  18.61806808420842  1.05822943424342  1.78171452305230
 1  20.33704377107711  0.32634907070707  0.01866961736174
 1  20.44991182448245  3.41685066996700 -0.66523679317932
 1  21.56355246914692  2.06809268716872 -1.41991324532453
 1  19.81790262346234  2.09703110541054 -1.68738916221622
 1  21.19164918021802  1.19160846464646  1.97258670027003
 1  22.25397003750375  2.35862439363936  0.93143740994099
 1  20.59574210681068  3.01915559175918  1.70801673287329

