%nproc=4
%Mem=2GB
# td=(NStates=1) CAM-B3LYP/6-31G(d,p) 

TD

0 1
12 -7.17922959225923  0.61598983968397  0.14924297289729
 6 -4.84820370147015 -1.92092420372037  0.57327296219622
 6 -4.90459976627663  2.81596592389239  1.23259671687169
 6 -9.49764435323532  3.11641404080408 -0.31027236023602
 6 -9.55948697629763 -1.69548972397240 -0.78413652865287
 7 -5.20709349094910  0.40374163466347  0.68282580298030
 6 -4.31918952425243 -0.69254987538754  0.79942184498450
 6 -2.87727868906891 -0.32709798189819  1.14249969116912
 6 -3.09050934013401  1.10887201970197  1.58822162856286
 6 -4.53865195189519  1.49310969136914  1.17038329952995
 6 -2.95783357435744  1.27088357565757  3.11846537263726
 6 -1.96410069096910 -0.56688069816982 -0.05735640984098
 6 -0.45365361936194 -0.42977120852085  0.49509809270927
 6  0.53953333173317 -0.54344777687769 -0.62868452025202
 8  0.17310786048605 -0.98553995779578 -1.69999928022802
 8  1.73464048904890 -0.39622452925293 -0.17801202130213
 7 -7.12576018451845  2.64427583488349  0.43046820362036
 6 -6.16246337733773  3.33818477237724  0.87032501650165
 6 -6.48062605230523  4.73120375077508  0.92138990349035
 6 -7.83324391979198  4.86281616831683  0.45758266526653
 6 -8.21229178237824  3.51535182648265  0.11759209840984
 6 -5.53057883908391  5.89818090939094  1.25002152735274
 6 -8.71601081348135  6.02707777577758  0.39996001790179
 6 -8.36445564336434  7.24122020632063  0.07460319801980
 7 -9.16069110481048  0.70397687598760 -0.54617632293229
 6 -9.95705736473647  1.80711139373937 -0.62699782398240
 6 -11.25712045494550  1.44970596099610 -1.10737548714871
 6 -11.32078059875988  0.09181305860586 -1.15850511671167
 6 -9.96562644634463 -0.38145663376338 -0.79435873877388
 6 -12.37876611871187  2.31376365726573 -1.53822435333533
 6 -12.55005505120512 -0.70175123732373 -1.64467964516452
 6 -12.44010034203420 -1.00041392659266 -3.15245335073507
 7 -7.26263251535153 -1.37152651425142 -0.19461257995800
 6 -8.26868209050905 -2.23306924642464 -0.53221102700270
 6 -7.83060072757276 -3.63260744364436 -0.52436086508651
 6 -6.44934045604561 -3.61836615211521 -0.12656514861486
 6 -6.21608638683868 -2.18934508900890  0.12148376977698
 6 -8.74998534323432 -4.78065088398840 -0.95682522952295
 6 -5.37339387708771 -4.34820080538054  0.16719521942194
 8 -5.15426678847885 -5.52906556015602  0.18677471227123
 6 -4.19739314931493 -3.32885581968197  0.46849774177418
 6 -3.49117348154815 -3.68771485608561  1.86115729542954
 8 -3.84982863746375 -3.17562079487949  3.00232394769477
 8 -2.55065641354135 -4.66161431393139  1.71214930293029
 6 -1.98524116261626 -5.12263273257326  2.88402973997400
 6  2.80967474407441 -0.73863312101210 -1.08645402030203
 6  4.12218554095410 -0.51988583798380 -0.47639016771677
 6  5.20201380878088  0.22499582408241 -0.96470637083708
 6  5.19617703430343  1.12896743304330 -2.18964605570557
 6  6.51744820242024  0.22540134703470 -0.19150583678368
 6  7.72720045894589 -0.29470135203520 -0.92896256495650
 6  9.04062314471447 -0.14980471397140 -0.11741433563356
 6  10.32854374737474 -0.61924902320232 -0.93133952835284
 6  10.21515870207021 -1.99192852775278 -1.44606626812681
 6  11.57983910101010 -0.44665555615562 -0.10650045134513
 6  12.94055122412241 -0.64596111201120 -0.86231677147715
 6  14.01403709150915 -0.16897366056606 -0.00572335933593
 6  15.51976732073207 -0.35779839153915 -0.63119616991699
 6  15.83953805600560 -1.77874065986599 -0.88895617541754
 6  16.45243849784978  0.37458184428443  0.36848603330333
 6  17.87994369866987  0.62957108290829 -0.14143242314231
 6  18.73882928242825  1.42269411621162  0.84114647634763
 6  20.26795447524752  1.56195193979398  0.38515811941194
 6  20.39994022292229  2.30804645264526 -0.90780660206021
 6  21.15125299939994  2.00136450585059  1.49441614321432
 1 -4.17050730923092  3.53761214291429  1.73071759275928
 1 -10.15547929962996  3.97279486338634 -0.34207851045105
 1 -10.21698095989599 -2.51902195689569 -0.97323087058706
 1 -2.40159885058506 -0.97378704240424  2.03113035163516
 1 -2.28999863786379  1.59353784238424  1.09486385288529
 1 -1.96119984328433  1.32870835983598  3.37663787718772
 1 -3.37673245944594  2.26576603320332  3.39132369986999
 1 -3.33117409860986  0.32265663336334  3.66393027752775
 1 -2.27128965586559 -1.64165008540854 -0.42102708870887
 1 -2.14155835803580  0.09784187548755 -0.98550365196520
 1 -0.30026712071207  0.61134905840584  0.81224347624762
 1 -0.29764571827183 -1.28567154255426  1.32922579847985
 1 -5.09207137483748  6.25178035313531  0.33878566076608
 1 -6.01993666396640  6.78026782558256  1.67927261646165
 1 -4.65134836363636  5.47727289868987  1.90729440814081
 1 -9.80392789168917  5.83007594369437  0.43041088558856
 1 -9.29529016941694  7.92737132663266 -0.15903531023102
 1 -7.38641367796780  7.42332290149015 -0.05802027262726
 1 -12.52582799559956  3.08068537383738 -2.42815911431143
 1 -13.37356256975698  1.89599523762376 -1.71739526322632
 1 -12.69806676807681  3.09633271867187 -0.74243574157416
 1 -12.40520304840484 -1.62893529172917 -1.08677888578858
 1 -13.46398240184018 -0.33838765176518 -1.26900425742574
 1 -13.49722018821882 -1.13934517371737 -3.56869986768677
 1 -12.05074524852485  0.07434870897090 -3.53091066606661
 1 -11.53380672827283 -1.93981692569257 -3.25804491999200
 1 -9.09090998689869 -4.67066991529153 -1.84496207760776
 1 -8.21956565756576 -5.89628973717372 -0.86713094119412
 1 -9.55016718251825 -5.01328811581158 -0.28041629782978
 1 -3.45725585758576 -3.19183076757676 -0.21076772977298
 1 -1.24688577857786 -4.38790716801680  3.20598728572857
 1 -2.77649283668367 -5.29206984938494  3.71273849594960
 1 -1.48054948144814 -5.96451062816282  2.44661136403640
 1  2.66941161226123 -1.72109179907991 -1.42829690599060
 1  2.34311601180118 -0.06333341494149 -1.85509752955296
 1  4.36531575587559 -1.12149015521552  0.54149652585259
 1  4.22128306460646  1.37154825112511 -2.63041638393839
 1  5.60650394879488  1.91913630383038 -1.69867422202220
 1  5.80137546034603  0.62563289348935 -2.91694299359936
 1  6.83867689098910  1.22230845854585  0.31355885358536
 1  6.51182453045304 -0.46739998889889  0.61289229632963
 1  7.57594133623362 -1.47132820452045 -1.04594872357236
 1  7.81313284428443 -0.01883500700070 -2.08827897479748
 1  9.04932102930293  1.00060267676768  0.07181114361436
 1  8.86333415621562 -0.48798715411541  0.91638625722572
 1  10.50856256775677 -0.07630286398640 -1.96164999559956
 1  9.39886638303831 -2.26027307160716 -2.06268122932293
 1  10.98544162886289 -2.23534004660466 -2.08989517551755
 1  10.23829130273027 -2.66319794239424 -0.68880097079708
 1  11.67140190239024  0.73833824132413  0.09578154155416
 1  11.55392580228023 -1.04458679677968  0.70679815281528
 1  13.24597033273327 -1.49097595899590 -1.20318865376538
 1  12.94334324032403  0.02018149714972 -1.75972433623362
 1  13.89629113231323  0.77353060856086  0.23434009450945
 1  14.02774886518652 -0.83501593889389  0.87179234893489
 1  15.39602199429943  0.18989885028503 -1.63029268876888
 1  15.82728472947295 -2.43170989688969 -0.02244984258426
 1  15.32393992579258 -2.05411360496050 -1.80208792919292
 1  16.82540059865987 -1.93438736733673 -1.39163127192719
 1  16.17803301300130  1.41482055475548  0.54050747174718
 1  16.23554525652565  0.13247685198520  1.27439037073707
 1  18.22426161806181 -0.34988195199520 -0.27201320892089
 1  17.89924000520052  0.89970122862286 -1.05321880578058
 1  18.34336301910191  2.42060395999600  0.81115621652165
 1  18.87821409880988  0.95846945824582  1.77050340194019
 1  20.51257132383238  0.50577701350135  0.14832258265827
 1  20.09861669496950  3.45922490739074 -0.88625889538954
 1  21.47190330423042  2.29478535643564 -1.29956121012101
 1  19.60956178937894  2.07213861616162 -1.59340976427643
 1  21.25939595489549  1.16125542934293  2.16553599519952
 1  22.16052069256926  2.14331286248625  1.10706497269727
 1  20.90215274787479  3.04150782698270  2.12288822002200

