%nproc=4
%Mem=2GB
# td=(NStates=1) CAM-B3LYP/6-31G(d,p) 

TD

0 1
12 -7.22767443674367  0.63536177687769  0.11656970557056
 6 -4.89336821792179 -1.88417052835284  0.46621225612561
 6 -4.84313361966197  2.91051537883788  1.12878633583358
 6 -9.47567215601560  3.00256265566557 -0.34514584758476
 6 -9.53903493109311 -1.71588176317632 -0.80807892289229
 7 -5.16281906350635  0.50035129562956  0.70027754815482
 6 -4.28002560786079 -0.59740036043604  0.76130803360336
 6 -2.86026698789879 -0.33836910901090  1.17052249344935
 6 -2.96029631883188  1.14149528202820  1.62128493489349
 6 -4.42218030473047  1.51198157855786  1.15009127032703
 6 -2.71056884788479  1.39419590689069  3.14035756185619
 6 -1.88793307420742 -0.51355536563656 -0.02474314851485
 6 -0.41735998999900 -0.45053328472847  0.56136471937194
 6  0.53899327772777 -0.69906333843384 -0.58275992779278
 8  0.28647919761976 -1.09515091889189 -1.73088236853685
 8  1.83798082308231 -0.50064497129713 -0.17804202430243
 7 -7.21829943844384  2.66079748704870  0.26354151095110
 6 -6.06004313531353  3.37976893079308  0.75739372337234
 6 -6.53901189088909  4.81969259965997  0.96984474897490
 6 -7.83001359675968  4.80297018371837  0.45837274427443
 6 -8.30241079427943  3.48502879417942  0.08646898609861
 6 -5.71471725292529  5.96956804810481  1.43328985418542
 6 -8.76408562096210  6.00666573457346  0.43007302920292
 6 -8.29407860566056  7.16659274357436  0.20951668936894
 7 -9.15782081778178  0.58254473277328 -0.55927763306331
 6 -10.03472513151315  1.72790347294729 -0.58754387858786
 6 -11.29349409230923  1.40816180658066 -0.99108385798580
 6 -11.29425794649465  0.04610848814881 -1.23845311151115
 6 -10.00146002970297 -0.48839732783278 -0.87356665956596
 6 -12.32863110521052  2.39144142504250 -1.42211274217422
 6 -12.40764080978098 -0.79438050025002 -1.73175835303530
 6 -12.40019635163516 -1.13009689488949 -3.28967707310731
 7 -7.12581883398340 -1.40719008060806 -0.21935505420542
 6 -8.18927414971497 -2.19217515701570 -0.53558136403640
 6 -7.76771443894389 -3.63322750565056 -0.46198462746275
 6 -6.49279480148015 -3.49251356685669 -0.07152964506451
 6 -6.18191296949695 -2.18762491699170  0.10975259665967
 6 -8.55341568626863 -4.87374019291929 -0.82692223922392
 6 -5.31905844354435 -4.36253223852385  0.13081158105811
 8 -5.15572693449345 -5.55039769336934  0.13095913071307
 6 -4.24475788578858 -3.26148908300830  0.58437932993299
 6 -3.67669203340334 -3.74527061166117  1.86942812251225
 8 -3.87459111371137 -3.08105133793379  2.91402511781178
 8 -2.78633998189819 -4.80586873937394  1.68373646164616
 6 -2.06669930843084 -5.18115858515852  2.87859919691969
 6  2.83714749134913 -0.63190244794479 -1.23641901680168
 6  4.15244856725673 -0.49368321772177 -0.49326185488549
 6  5.20356396379638  0.28343166766677 -0.99343924412441
 6  4.99378679527953  1.23280781708171 -2.18387547864786
 6  6.43607006460646  0.51829063596360 -0.14965165136514
 6  7.65745348424842 -0.05365724762476 -0.85219488818882
 6  8.98313739613961 -0.17690742424242  0.00541794759476
 6  10.24571546454646 -0.36677377567757 -0.81672806720672
 6  10.21002818901890 -1.93853318821882 -1.46943860536054
 6  11.46078719581958 -0.40117100770077  0.05777597629763
 6  12.84092126112611 -0.65694221012101 -0.63031357115712
 6  14.01856754455446 -0.20716747994799  0.24868208120812
 6  15.36736208020802 -0.26266887858786 -0.47764081438144
 6  15.76588069026903 -1.63986677247725 -0.97058433823382
 6  16.48773202720272  0.42000638673867  0.45307449214921
 6  17.89287499179918  0.57064519031903 -0.23228150805081
 6  18.81048644814481  1.37900974777478  0.77402976467647
 6  20.31053873367337  1.29868561316132  0.25509511311131
 6  20.38675890479048  1.91308695669567 -1.16338215961596
 6  21.26944481858186  2.00654502390239  1.17589429102910
 1 -4.08951921042104  3.74556293799380  1.64045856685669
 1 -10.38611236293629  3.78631621552155 -0.48349265186519
 1 -10.26709597139714 -2.48586864156416 -1.27694124162416
 1 -2.65039373007301 -0.98959862356236  1.99709694829483
 1 -2.35446508450845  1.70443893249325  0.98467283378338
 1 -1.68616233953395  1.16107159615962  3.52877309070907
 1 -3.07761254745475  2.37065652225223  3.35906047354736
 1 -3.31754273547355  0.67195156285629  3.70351423592359
 1 -2.11918444534453 -1.54523044344434 -0.54179916591659
 1 -1.95982018421842  0.12072416371637 -0.71036613821382
 1  0.00602350835083  0.56076399989999  1.12051430333033
 1 -0.29773572727273 -1.16332930833083  1.34485736163616
 1 -5.09255142284228  6.23815899099910  0.63372515471547
 1 -6.28995366566657  6.73043284208421  1.78193288248825
 1 -4.93217644644464  5.77447261866187  2.17867154585458
 1 -9.66422392129213  5.75562849894989  0.49117696219622
 1 -8.97139778017802  8.05414400390039  0.21262185548555
 1 -7.23373841044104  7.37313788298830  0.20231576097610
 1 -11.98917433023302  3.02884018931893 -2.29622592099210
 1 -13.17593280678068  1.63070870897090 -1.86089961366137
 1 -12.85792275367537  3.18258134353435 -0.62879437743774
 1 -12.39777230533053 -1.80753315151515 -1.48410861876188
 1 -13.25348135173517 -0.40273408640864 -1.28569592659266
 1 -13.32453291949195 -1.65716695589559 -3.72807580528053
 1 -12.45476565056506 -0.05303402930293 -3.74256183118312
 1 -11.26534988258826 -1.38778172217222 -3.57764688018802
 1 -9.19132002790279 -4.75820866916692 -1.74327190859086
 1 -7.78738243924392 -5.68664877307731 -1.10857508560856
 1 -9.48097026282628 -4.97479426642664 -0.06520477667767
 1 -3.40686081808181 -3.37749933443344 -0.11453810681068
 1 -1.60653174317432 -4.19544792209221  3.43169985698570
 1 -2.85012019941994 -5.65294593699370  3.53898112021202
 1 -1.34049547604760 -5.90816499359936  2.62093879677968
 1  2.61398606970697 -1.74779446934693 -1.58370244654465
 1  2.73122482268227  0.10105302370237 -2.09647166696670
 1  4.30145937023702 -0.92332033823382  0.49803217941794
 1  4.01908284458446  1.30076117241724 -2.48295163746375
 1  5.28302160056006  2.34466885708571 -1.95096945154515
 1  5.76995231803180  0.83887421762176 -2.94497579687969
 1  6.79154217751775  1.36144237193719  0.27973547124712
 1  6.41073442144214 -0.10284353325333  0.85510651775178
 1  7.38857259935994 -1.19168023972397 -1.20598472717272
 1  7.96441797279728  0.55431230773077 -1.74435458235824
 1  9.28775487268727  1.06644926142614  0.36022998549855
 1  8.78926674947495 -0.56763511891189  0.87228184678468
 1  10.13940565206521  0.30663542984298 -1.71021485208521
 1  9.39292578897890 -1.83963100740074 -2.09802476367637
 1  11.05381846654665 -2.14183069566957 -2.12826901290129
 1  10.09845731933193 -2.57565918851885 -0.52257434813481
 1  11.58763352555255  0.63434784228423  0.49551151455146
 1  11.19050946064606 -1.23584592269227  0.78215568856886
 1  12.92347808350835 -1.78834569596960 -0.71438977387739
 1  12.87020592659266 -0.15187570857086 -1.53662202600260
 1  13.88899040224022  0.79036229172917  0.67836449694969
 1  14.13696978727873 -0.93750618791879  1.06136130583058
 1  15.36166855895589  0.34450431083108 -1.28670833033303
 1  15.70916291729173 -2.24468119401940 -0.06572417001700
 1  15.04816234803480 -1.90076827042704 -1.80920864126413
 1  16.62352041064107 -1.62699662826283 -1.35952806160616
 1  16.06729193889389  1.40874994769477  0.72917633863386
 1  16.74731643364337 -0.21232762846285  1.53019595129513
 1  18.22225141704170 -0.49259622342234 -0.25614162176218
 1  17.87010709190919  1.05229648814881 -1.23854733863386
 1  18.43141182398240  2.28727062666267  0.63318841974197
 1  18.74113039043904  0.95266887818782  1.79933628522852
 1  20.59191925862586  0.22650908670867  0.23190094049405
 1  20.16757359065907  2.98782776767677 -1.06087635713571
 1  21.36690280418042  1.79062494039404 -1.66071732573257
 1  19.63512434563456  1.51396279857986 -1.87719814311431
 1  21.06438645394540  1.48944824862486  2.24119356095610
 1  22.32431707220722  1.84326285748575  1.02148641484148
 1  21.00414294689469  3.03278695489549  1.46725265646565

