%nproc=4
%Mem=2GB
# td=(NStates=1) CAM-B3LYP/6-31G(d,p) 

TD

0 1
12 -7.14484615391539  0.65847408810881  0.05041308990899
 6 -4.79520840194019 -1.96283839513951  0.36484211911191
 6 -4.83590289658966  2.73712804010401  1.09760321752175
 6 -9.57084167296730  3.12288468786879 -0.35584691769177
 6 -9.57411843944394 -1.70003017801780 -0.80228834383438
 7 -5.08097087868787  0.39657091759176  0.65935345574557
 6 -4.29355696099610 -0.70734135453545  0.73632553535354
 6 -2.87765872707271 -0.37592286438644  1.22151759295930
 6 -3.02825311451145  1.02639377187719  1.61593439983998
 6 -4.39517760446045  1.52798317871787  1.15471173237324
 6 -2.96851464246425  1.27645413271327  3.12495602170217
 6 -1.86351063196320 -0.66460047014701  0.03320264606461
 6 -0.36079433343334 -0.45335356675668  0.44868345124512
 6  0.52166154455446 -0.71786521862186 -0.74446609840984
 8  0.17571812151215 -1.02463386718672 -1.88530781108111
 8  1.77815484048405 -0.42794770157016 -0.26233045314531
 7 -7.07194480298030  2.62210361766177  0.27382253905391
 6 -6.07105423642364  3.32481343524352  0.83509149314931
 6 -6.40584857455746  4.76181681208121  0.85592335683568
 6 -7.76423701910191  4.81257114381438  0.44524143114311
 6 -8.23173372657266  3.49430972227223  0.07855819501950
 6 -5.62083786498650  5.86556764806481  1.42406893209321
 6 -8.67052626502650  6.05259032703270  0.38289831173117
 6 -8.24946414421442  7.27503358765877  0.09265500320032
 7 -9.18332336803680  0.72870934923492 -0.49764146944694
 6 -9.92538419741974  1.84091477407741 -0.65002012621262
 6 -11.28595333823382  1.33933492389239 -1.10368511811181
 6 -11.22378089878988  0.01980585788579 -1.17216648284828
 6 -10.00300018371837 -0.39993848194819 -0.81264056695670
 6 -12.42360060216022  2.31725400630063 -1.26584711561156
 6 -12.38808885458546 -0.82501356355636 -1.67373255045505
 6 -12.33581991399140 -1.09499338453845 -3.30220832623262
 7 -7.22087833993399 -1.28389775137514 -0.15785890459046
 6 -8.30692591489149 -2.22171811131113 -0.40414822072207
 6 -7.84797246474647 -3.62493667656766 -0.35781421042104
 6 -6.45478100010001 -3.50574488998900 -0.07586007810781
 6 -6.12521729992999 -2.12817897239724  0.01090271167117
 6 -8.39991033573357 -4.93006582548255 -0.68635818281828
 6 -5.34653119081908 -4.35520150545055  0.17281578147815
 8 -5.19088044984498 -5.56165881948195  0.07906394119412
 6 -4.12813622362236 -3.39906284038404  0.45940683268327
 6 -3.54752911711171 -3.69288537313731  1.80836201590159
 8 -3.83512716731673 -3.10345357815782  2.81649536483648
 8 -2.55828717661766 -4.63166131863186  1.75443353135314
 6 -2.01861449995000 -4.98394886418642  3.03198453545355
 6  2.84715849244924 -0.68914817251725 -1.18414378927893
 6  4.18328165056506 -0.45729957935794 -0.53180570927093
 6  5.10911451885188  0.45720904540454 -0.87510741094109
 6  4.97472488908891  1.49430396669667 -1.98112520362036
 6  6.50745720332033  0.37978678557856 -0.16050273647365
 6  7.69078681758176 -0.12459434133413 -0.96746641534153
 6  8.85578466086609 -0.21531126462646 -0.09396199039904
 6  10.21849274227423 -0.40283738203820 -0.89364575897590
 6  10.12615980218022 -1.84832416731673 -1.59671133263326
 6  11.39452056915692 -0.35403629422942  0.10795099379938
 6  12.74618178717872 -0.45573208910891 -0.62905344514451
 6  14.03474916271627 -0.35463222642264  0.34139135213521
 6  15.36692203620362 -0.25614822652265 -0.45318836913691
 6  15.64774887708771 -1.70392317811781 -0.69761704150415
 6  16.40917417141714  0.34758914501450  0.42505168986899
 6  17.80596630093009  0.52383050885089 -0.19269754965497
 6  18.94440984048405  1.14222606940694  0.83014537623762
 6  20.19303698349835  1.32968871347135  0.21788139173917
 6  20.30368059695969  2.14802045004500 -1.18657447884788
 6  21.21333920802080  1.91566593599360  1.20397709930993
 1 -4.19903016151615  3.43172155385539  1.55405992699270
 1 -10.30350410211021  3.86716430033003 -0.30569487208721
 1 -10.37225648744874 -2.50132018671867 -0.93198674617462
 1 -2.47438612931293 -0.89941960566057  2.10190742934293
 1 -2.42205184318432  1.68896738533853  1.03775814231423
 1 -2.01131485478548  0.94311980098010  3.42851306470647
 1 -3.07211199739974  2.34196365296530  3.50150471797180
 1 -3.81789277047705  0.79509387708771  3.52493637813781
 1 -2.00497302420242 -1.49277519791979 -0.24956994299430
 1 -2.09561376357636 -0.11536944564456 -0.78456355795580
 1 -0.21623871787179  0.54915283878388  0.90230248214822
 1 -0.18792474617462 -0.96965994139414  1.26242911881188
 1 -5.04677684538454  6.35462063716372  0.72961474367437
 1 -6.34044871517152  6.38435823462346  2.07716240544054
 1 -4.87975120392039  5.49969514091409  2.14742842154215
 1 -9.71815931483148  5.95758869496950  0.48291613611361
 1 -9.02654329472947  8.02689127862786 -0.09829923662366
 1 -7.21626666326633  7.62165273447345 -0.19821429202920
 1 -12.58206361916192  2.99278658395840 -2.11844814321432
 1 -13.41628684218422  1.87145278337834 -1.50719424312431
 1 -12.53472043344335  2.86092917831783 -0.28315981398140
 1 -12.40093262136214 -1.81802420062006 -1.42760296819682
 1 -13.35225122872287 -0.38444225722572 -1.41316867386739
 1 -13.14299476567657 -1.92554379357936 -3.41322432013201
 1 -12.48176835083508  0.00387166126613 -3.62390996599660
 1 -11.22568591619162 -1.42466541054105 -3.69724884038404
 1 -9.27822871877188 -4.82753560186019 -1.54785236663666
 1 -7.74989869086909 -5.58375848404840 -0.74316854495450
 1 -9.10705287108711 -5.26181296829683  0.24411615541554
 1 -3.48096822882288 -3.63254483898390 -0.29094574757476
 1 -1.48924001400140 -4.19278765606561  3.76052273927393
 1 -3.20769595699570 -5.39129977237724  3.50769799189919
 1 -1.39194062056206 -5.98981315841584  3.00807751065107
 1  2.80104477557756 -1.62518220812081 -1.70131420772077
 1  2.63632533273327  0.02627554595460 -1.87217923772377
 1  4.61160038433843 -1.17874588078808  0.19114149034904
 1  3.68275921222122  1.74961605790579 -2.00290363266327
 1  5.85662896129613  2.28692308250825 -1.63783813841384
 1  5.33753907670767  1.01719204940494 -2.99283058235824
 1  6.72507553085309  1.40584681238124  0.10926842454245
 1  6.40870421842184 -0.31289453835384  0.53235424252425
 1  7.45583932603260 -1.03790486218622 -1.28259238793879
 1  7.73198472947295  0.45872274877488 -2.06658680558056
 1  9.04399049624963  0.73919653615362  0.54051801430143
 1  8.58923674647465 -1.09015737113711  0.56671128972897
 1  10.27869958145815  0.40593535983598 -1.57325115571557
 1  9.15046154255426 -2.16246329062906 -2.21993695489549
 1  10.90375346004600 -2.08702521512151 -2.09514570057006
 1  9.95863333693369 -2.74143576617662 -0.74337642834283
 1  11.31185594779478  0.54304871237124  0.78256021942194
 1  11.16005641534153 -1.08021035913591  0.91980945394539
 1  12.63699943564357 -1.43325018641864 -1.05350368526853
 1  12.76757566356636  0.39351883088309 -1.25256362016202
 1  13.76381788498850  0.64988824432443  0.82811947244725
 1  14.31779787008701 -1.26707914521452  1.18169333903390
 1  15.16781917401740  0.05409526992699 -1.40113977347735
 1  16.02011401240124 -2.46381310721072  0.05308771117112
 1  14.78794632643264 -1.97580577417742 -1.33243096349635
 1  16.55455351395140 -1.80125405400540 -1.50676278507851
 1  16.00579578927893  1.36328540124012  0.92695611661166
 1  16.49558126012601 -0.43308970467047  1.17541047274727
 1  18.14897408930893 -0.41696866066607 -0.55486149374937
 1  17.78310839203920  1.47866912541254 -1.09911339523952
 1  18.67934661746175  2.19092099169917  1.03463856475648
 1  18.88623490089009  0.59870348164816  1.79333568516852
 1  20.52803286998700  0.37596403220322 -0.10709295889589
 1  19.90233706700670  3.23604258915892 -0.99005927542754
 1  21.41399751365137  2.30831670957096 -1.28067932193219
 1  19.64186501970197  1.78860026232623 -1.98161858515852
 1  21.21042105740574  1.59891919571957  2.24828427002700
 1  22.14095873637364  1.99375790699070  0.76063032923292
 1  20.92343487608761  2.99241291749175  1.28218414961496

