%nproc=4
%Mem=2GB
# td=(NStates=1) CAM-B3LYP/6-31G(d,p) 

TD

0 1
12 -7.13003467276728  0.58861710241024 -0.01491344274427
 6 -4.80021890299030 -1.93357546884688  0.46600223512351
 6 -4.84796410271027  2.81125545284528  1.19702315951595
 6 -9.48499308810881  3.03005540494049 -0.27783911691169
 6 -9.56532756035604 -1.69354952995300 -0.85749386438644
 7 -5.06562934453445  0.46031729222922  0.68275579597960
 6 -4.26362396769677 -0.64702532293229  0.80310221302130
 6 -2.92836379757976 -0.39647491959196  1.26344178537854
 6 -2.95417570677068  1.06875800830083  1.73458626502650
 6 -4.38810689738974  1.46440682108211  1.23978023922392
 6 -2.70256804780478  1.30266675397540  3.17970149624962
 6 -1.87348162906291 -0.70503451355136  0.13285261106111
 6 -0.46366462046205 -0.53446167756776  0.66302488538854
 6  0.56235561396140 -0.74152758485849 -0.42698435023502
 8  0.30260080978098 -1.14575597939794 -1.55419469976998
 8  1.82670969596960 -0.48001290809081 -0.04292851295129
 7 -7.15247285578558  2.59542094939494  0.24113927072707
 6 -6.11453858485849  3.28629958385839  0.77885586958696
 6 -6.43899188888889  4.69315994639464  0.79219698419842
 6 -7.74886548194819  4.82426231293129  0.30283719071907
 6 -8.24388494169417  3.46764705600560  0.00155049424942
 6 -5.63971975317532  5.84836592789279  1.30000652585259
 6 -8.60179939233923  5.88723379137914  0.26792681458146
 6 -8.24916411421142  7.25532161646165  0.05284102180218
 7 -9.24460949664966  0.66949342764276 -0.64742644794479
 6 -9.95051671067107  1.74322500510051 -0.72481760596060
 6 -11.30084482738274  1.40724171457146 -1.06727147674767
 6 -11.35604412511251  0.11821569886989 -1.25509477567757
 6 -10.00998088178818 -0.41181967006701 -0.91986128902890
 6 -12.37785602770277  2.43368564946495 -1.30759129002900
 6 -12.53021306700670 -0.70823188538854 -1.64880005720572
 6 -12.50165649764977 -1.02785667086709 -3.14223232863286
 7 -7.20937718981898 -1.31393075467547 -0.20095321402140
 6 -8.21842706500650 -2.23143908340834 -0.55842364826483
 6 -7.80153782128213 -3.54189837273727 -0.53886231523152
 6 -6.51586710871087 -3.52893720922092 -0.10825331743174
 6 -6.12231700990099 -2.11247740224022  0.07458908030803
 6 -8.65266561126113 -4.75533835273527 -0.75056460346035
 6 -5.40431696939694 -4.33245923122312  0.16454495439544
 8 -5.19931129292929 -5.53365601920192 -0.01705567076708
 6 -4.23503691369137 -3.33878681278128  0.63079397139714
 6 -3.58787315151515 -3.68948503310331  1.86592777247725
 8 -3.98364201880188 -3.35785901870187  2.95711942724272
 8 -2.75718706660666 -4.68136628912891  1.58798688668867
 6 -2.09594223272327 -5.24799526882688  2.77134847184718
 6  2.80745452205220 -0.65357461516152 -1.10414578947895
 6  4.17686100850085 -0.41898574797480 -0.44176670537054
 6  5.11079468686869  0.48184150865087 -0.81552145234523
 6  5.05772318891889  1.33550808710871 -2.03865095619562
 6  6.44428088568857  0.48816762366237 -0.15641232743274
 6  7.62670040894089 -0.08943082498250 -0.97000666936694
 6  9.00127921032103 -0.01545127862786 -0.15448804300430
 6  10.21399229222922 -0.47728482678268 -0.89843623802380
 6  10.12736992319232 -1.95405474037404 -1.30706236773677
 6  11.52746386348635 -0.22145303590359  0.01204140284028
 6  12.77625479447945 -0.52510902680268 -0.74403494329433
 6  14.01597728552855 -0.14002076527653  0.11071828482848
 6  15.43598894289429 -0.30692330403040 -0.55447849814982
 6  15.74720882308231 -1.73807659345935 -0.70686796659666
 6  16.40242349634963  0.45712009810981  0.38515770047005
 6  17.89647535183519  0.46340446624662 -0.19638791869187
 6  18.81150655015502  1.22116396319632  0.64977733943394
 6  20.30339801960196  1.37415315991599  0.22181178477848
 6  20.49383961286128  2.21749739773977 -1.11359718111811
 6  21.28283615771577  1.88496286568657  1.20718742034203
 1 -4.14380463896390  3.62244062576258  1.78126264726473
 1 -10.33448720042004  3.68871645554555 -0.45592989558956
 1 -10.42475173697370 -2.32432248694869 -1.09263281078108
 1 -2.61808049874988 -1.15593525722572  2.15873311191119
 1 -2.14881451945195  1.73171165976598  1.18664303080308
 1 -1.81942566586659  0.71536702570257  3.70576078947895
 1 -2.95467025322532  2.43533298989899  3.50456502400240
 1 -3.61831281248125  0.93153752145215  3.80279416391639
 1 -2.01290381728173 -1.78081400180018 -0.15497048304830
 1 -2.09901410361036 -0.15572348104811 -0.72522762436244
 1 -0.23706080008001  0.46808473197320  1.33252550445044
 1 -0.13319927362736 -1.42734570997100  1.43364624052405
 1 -5.04941710941094  6.33671884698470  0.37437922012201
 1 -6.12668733903390  6.51908170697070  1.99931462066207
 1 -4.78029125792579  5.09193436483648  1.87371104980498
 1 -9.57613511241124  5.54177711381138  0.09228707320732
 1 -9.02502314271427  8.10930952045204 -0.31753115981598
 1 -7.15551058765877  7.30832140134013  0.47993352275228
 1 -11.96406181898190  3.25167247254725 -1.92584888328833
 1 -13.43430864436444  2.04125976407641 -1.63144666836684
 1 -12.67568452985299  2.89790287568757 -0.15705720372037
 1 -12.41287381548155 -1.58335073327333 -1.17097730563056
 1 -13.50444644824482 -0.24529834283428 -1.34013137013701
 1 -13.21842230843084 -1.39382062126213 -3.56971996969697
 1 -12.25737591159116 -0.11175990189019 -3.77111468646865
 1 -11.68906225382538 -1.61284422842284 -3.22622173767377
 1 -9.33808470437044 -4.69068191649165 -1.71720930233023
 1 -8.00420412141214 -5.75388549674967 -0.95488971707171
 1 -9.37566973277328 -5.26633342034203  0.09517126092609
 1 -3.17050718271827 -3.40897248174818  0.00467381438144
 1 -1.33814490449045 -4.47890626792679  3.11155784278428
 1 -2.81400658805881 -5.28999964236424  3.45996321842184
 1 -1.47826925342534 -6.05967014411441  2.43699040194019
 1  2.49215388648865 -1.57810750065006 -1.48514259055906
 1  2.56100780098010  0.09598251665166 -1.90642266206621
 1  4.42857208150815 -1.12664067026703  0.50588296449645
 1  4.14646558285829  1.57718881518152 -2.43967731003100
 1  5.80374367276728  2.26659104930493 -1.94800915551555
 1  5.46327164996500  0.71267159735974 -2.98945024432443
 1  6.57601062436244  1.59247547524753  0.18643614131413
 1  6.39740308830883  0.01693844494449  0.73771477857786
 1  7.38181192329233 -1.04973604530453 -1.30417454615462
 1  7.90649218021802  0.53964084058406 -2.05044519141914
 1  9.13472957015702  1.06558917541754  0.24039800230023
 1  9.00150797359736 -0.46614496989699  0.81166578517852
 1  10.32154386588659  0.12561732803280 -1.86229005960596
 1  9.24230072647265 -2.11558860316032 -1.97035199639964
 1  11.04976806150615 -2.44338085068507 -1.84425061106111
 1  9.87726520012001 -2.55816743934393 -0.29257134783478
 1  11.36805156735674  0.74802921042104  0.21102306570657
 1  11.41757216691669 -0.80188252635264  0.83739121212121
 1  12.94638037373737 -1.42813967536754 -1.19793812871287
 1  12.76145505150515 -0.00294081508151 -1.77805616941694
 1  13.90021152435244  0.89834308980898  0.32695935643564
 1  14.08793488378838 -0.48743118041804  1.11819698939894
 1  15.37534992709271  0.42737259765977 -1.41032069156916
 1  15.67894989598960 -2.24209093499350  0.16110851325133
 1  15.08797632943294 -2.13539173277328 -1.44081180158016
 1  16.72493055165517 -1.81322525112511 -1.25633774257426
 1  16.13749895959596  1.49518859155916  0.41604502550255
 1  16.28127982998300 -0.00071646734673  1.35085801750175
 1  18.23907309920992 -0.52284924872487 -0.56920292789279
 1  17.74687476867687  0.95660691919192 -1.21031451535154
 1  18.23704238703870  2.18201010061006  0.90372547344734
 1  18.71787806520652  0.79328293959396  1.60969732133213
 1  20.66356642334233  0.26343277907791  0.01075882628263
 1  19.83793062636264  3.19842882778278 -0.91688195769577
 1  21.61326744064407  2.48807468536854 -1.10593184718472
 1  20.05155598879888  1.61257265956596 -1.90954137743774
 1  21.66006602190219  1.34082338613861  2.02983242484248
 1  22.28990363086309  2.10726925812581  0.61270553675368
 1  20.80131266386639  2.99036271247125  1.63163909510951

