%nproc=4
%Mem=2GB
# td=(NStates=1) CAM-B3LYP/6-31G(d,p) 

TD

0 1
12 -7.11686335563556  0.69901814251425  0.02123017161716
 6 -4.84508338943894 -1.92828493979398  0.53270890579058
 6 -4.68946825312531  2.83682801010101  0.99520297749775
 6 -9.42511710051005  3.06431883128313 -0.42899423242324
 6 -9.62557358495850 -1.79078925392539 -0.91518963396340
 7 -5.09245202680268  0.49894115461546  0.71266878727873
 6 -4.32514011931193 -0.66808742914291  0.78545044784478
 6 -2.83702466366637 -0.37336260836084  1.14998043924392
 6 -2.89374966416642  1.10578171067107  1.71405421182118
 6 -4.32899098579858  1.52022240264026  1.17387364856486
 6 -2.92542033303330  1.16168265556556  3.31958548464846
 6 -1.87554183508351 -0.52317632773277 -0.00928160236024
 6 -0.43664191819182 -0.53742197359736  0.44748333123312
 6  0.56014539293929 -0.78600203230323 -0.66027767956796
 8  0.17440799049905 -1.31895329912991 -1.68695797609761
 8  1.77634465946595 -0.44593950075008 -0.24195841594159
 7 -7.04644225272527  2.61433284058406  0.31517667446745
 6 -5.97637476847685  3.34590554445445  0.90072805680568
 6 -6.36424441414141  4.80737136753675  0.87914567906791
 6 -7.67497809320932  4.85233512021202  0.55582248924892
 6 -8.09578013121312  3.49630992229223  0.15049538873887
 6 -5.52617839903990  5.93026411771177  1.49310583578358
 6 -8.56094530693069  6.02617768576858  0.32872289418942
 6 -8.29358855665567  7.26209229352935  0.13413915161516
 7 -9.12150718641864  0.62169864816482 -0.47762946824682
 6 -9.87405906490649  1.77260794339434 -0.68783390759076
 6 -11.17533227612761  1.50190118051805 -1.13877862746275
 6 -11.21658017871787  0.07750162746275 -1.24947421362136
 6 -9.88753863756376 -0.35497398549855 -0.91497079998000
 6 -12.06491473357336  2.60598287918792 -1.33521405230523
 6 -12.34304435013501 -0.78765982818282 -1.76961213841384
 6 -12.45800213221322 -1.11536542174217 -3.21904000940094
 7 -7.32174842694269 -1.36869623122312 -0.20700381908191
 6 -8.31327654995500 -2.22200814031403 -0.56243404930493
 6 -7.85710337783778 -3.64630881378138 -0.42086051505151
 6 -6.58626414841484 -3.51675599109911 -0.05896838893889
 6 -6.26955173337334 -2.18530468496850  0.08430005140514
 6 -8.64887523222322 -4.88090090899090 -0.75503505050505
 6 -5.38647518521852 -4.41135712101210  0.20257875777578
 8 -5.30295165696570 -5.55062771637164  0.09289532433243
 6 -4.27188059805981 -3.27736067016702  0.60258115011501
 6 -3.52262662686269 -3.77683376797680  1.90005118481848
 8 -3.63560721532153 -3.08604183698370  2.88568228352835
 8 -2.84078542644264 -4.97178533103310  1.81048913691369
 6 -2.36121876037604 -5.38043851315132  3.08590992799280
 6  2.89647342394239 -0.82892214991499 -1.20004537943794
 6  4.10468379077908 -0.52575642504250 -0.53875640434043
 6  5.09848345574557  0.34235756025603 -0.92833273347335
 6  5.07078449504950  1.19497403370337 -2.20003709480948
 6  6.42242870047005  0.30817962486249 -0.15094178037804
 6  7.66775451435143 -0.09754163606361 -0.96456612531253
 6  8.92038112051205  0.03147341384138 -0.20912350655066
 6  10.26646753975398 -0.41011811011101 -0.96991338573857
 6  10.03391057725773 -1.94814414931493 -1.39240090159016
 6  11.42217333443344 -0.26529742034203 -0.04374417571757
 6  12.75588275727573 -0.36218273417342 -0.72509304910491
 6  13.99416510431043 -0.12853961716172  0.20069728272827
 6  15.32483782778278 -0.19933254495450 -0.38552160246025
 6  15.62720682288229 -1.65405819161916 -0.76592387218722
 6  16.43178643264326  0.33127751385139  0.40908009270927
 6  17.79039474377438  0.57961608740874 -0.18697697759776
 6  18.81827722722272  1.23046489328933  0.84072643434343
 6  20.26023370317032  1.38209395399540  0.21525112871287
 6  20.19032926182618  2.26543219121912 -1.07317313871387
 6  21.16386426052605  2.04327869726973  1.24319102070207
 1 -3.88808906740674  3.44024240594059  1.41593611461146
 1 -10.20176392809281  3.81946953085309 -0.35432973557356
 1 -10.37795705750575 -2.46397645234523 -1.13529707720772
 1 -2.42611130183018 -1.10081974567457  1.88443568216822
 1 -2.07305694369437  1.63282177077708  1.26838120462046
 1 -1.87354107740774  0.67844333333333  3.41675188858886
 1 -2.74836962316232  2.28218767536754  3.42839740724072
 1 -3.84552553375338  0.81067543524352  3.77411129562956
 1 -2.19795232213221 -1.56562248264827 -0.60829581558156
 1 -2.17928213041304  0.20002209350935 -0.77002210381038
 1 -0.19379647364736  0.51882980648065  0.94820707260726
 1 -0.39456541024102 -1.45165814121412  1.28773164906491
 1 -4.80670283798380  6.31323649874988  0.89782156435644
 1 -6.42296696699670  6.68167796659666  1.56417110631063
 1 -5.02471570037004  5.63379855125513  2.48340201890189
 1 -9.72219971887189  5.86759969606961  0.65196304080408
 1 -8.75811645204520  8.02535112461246 -0.08704811151115
 1 -7.25307034363436  7.68713928312831 -0.08704317491749
 1 -11.76076148894890  3.20662796809681 -2.23474977337734
 1 -13.13435864936494  2.29940557865787 -1.53260678437844
 1 -12.21889885128513  3.26446953235324 -0.39385088308831
 1 -12.39892242034203 -1.80386278447845 -1.16834704260426
 1 -13.17920392399240 -0.35790960396040 -1.73860121712171
 1 -13.10617108330833 -1.86411765096510 -3.53616661436144
 1 -12.43626380038004 -0.05118384428443 -3.60184775977598
 1 -11.51753510111011 -1.35807875187519 -3.50266938243824
 1 -8.88467936383638 -5.01569441774177 -1.66320390179018
 1 -7.83161686268627 -5.71975208340834 -0.49880410851085
 1 -9.53503566936694 -5.07369415641564  0.04333607740774
 1 -3.45767589958996 -3.27717930243024 -0.06246289928993
 1 -1.74425551555155 -4.55504388168817  3.50213690069007
 1 -3.17834302170217 -5.82256289868987  3.54418164026403
 1 -1.68021944844484 -6.09982415951595  2.85692239513951
 1  3.08846351745175 -1.96935662556256 -1.46935101140114
 1  2.80327202740274 -0.21309839143914 -2.23353537333733
 1  4.19316854115412 -1.15629363556356  0.37156953315332
 1  4.12213314961496  1.26936803310331 -2.75561890419042
 1  5.36263956235624  2.24294868506851 -1.94050840544054
 1  5.88190351315131  0.79645997619762 -2.86693799309931
 1  6.56375939923992  1.28313454115412  0.39306680438044
 1  6.33508685668567 -0.30856410531053  0.65620662776278
 1  7.74234797689769 -1.16432750445044 -1.19122325102510
 1  7.77912944394439  0.60986786328633 -1.92745289218922
 1  9.17770386758676  1.08361097759776  0.17098106060606
 1  8.83631145394539 -0.69682803820382  0.63604822342234
 1  10.27128884038404  0.14088885518552 -1.90713454405441
 1  9.20223672007201 -2.18644568886889 -2.09991495269527
 1  10.89034211891189 -2.22363887648765 -1.99429561556156
 1  9.81266874047405 -2.54306592919292 -0.56181827252725
 1  11.18315307750775  0.74088849634964  0.27264922832283
 1  11.06586699639964 -0.81832417051705  0.65492296529653
 1  12.88161389708971 -1.29505636703670 -1.19259759465947
 1  12.78138704470447  0.38575805480548 -1.48812717651765
 1  13.88488999219922  0.98663191869187  0.44571123162316
 1  13.70711680198020 -0.80294273157316  1.00092526222622
 1  15.36793918601860  0.44557441784178 -1.35553521302130
 1  15.69015101610161 -2.24124084998500  0.11965436783678
 1  14.83656118791879 -1.93685187878788 -1.52509022942294
 1  16.59591765036504 -1.74873880248025 -1.22823493229323
 1  15.94073928362836  1.29759883258326  0.77611103210321
 1  16.40670237223722  0.05800940524052  1.48438136983698
 1  18.32374156605661 -0.39722668646865 -0.64067007460746
 1  17.78672875407541  1.42684394289429 -1.08031151505151
 1  18.60947963076308  2.24685658525853  0.99571467236724
 1  18.86372264966496  0.69682329362936  1.92619897149715
 1  20.76172623932393  0.46879331513151  0.00660841124112
 1  19.78863569686969  3.34609359425943 -0.85761603110311
 1  21.14904101800180  2.34880075797580 -1.60449170317032
 1  19.56535736893689  1.90578198049805 -1.89312973627363
 1  21.38190820612061  1.27332663646365  2.01245068666867
 1  22.19756439693969  2.22725125632563  0.80280454665467
 1  20.73951648424843  3.05611928812881  1.70064599579958

