%nproc=4
%Mem=2GB
# td=(NStates=1) CAM-B3LYP/6-31G(d,p) 

TD

0 1
12 -7.13501517081708  0.59819806050605 -0.07391934333433
 6 -4.85459434053405 -1.95481759305931  0.44215985088509
 6 -4.82750205650565  2.81434576187619  1.19705316251625
 6 -9.35547013581358  3.09933233263326 -0.34585591859186
 6 -9.58481950955096 -1.80652082708271 -0.92160027502750
 7 -5.01349413101310  0.41801306180618  0.57673519391939
 6 -4.29202680798080 -0.67103772417242  0.68209011181118
 6 -2.86488744994499 -0.39740501260126  1.30812625382538
 6 -3.07713800300030  1.02707383988399  1.80862366876688
 6 -4.37694578127813  1.50087046744674  1.16878313951395
 6 -3.12569036003600  1.07113360066007  3.29321284738474
 6 -1.99358363926393 -0.57904191429143  0.03615294109411
 6 -0.55024327832783 -0.40217844924492  0.64073265616562
 6  0.49501888028803 -0.59646307840784 -0.51690334213421
 8  0.11223177287729 -0.97274867866787 -1.59505878617862
 8  1.79630665566557 -0.35856076287629 -0.04458867896790
 7 -7.08118572707271  2.58823023032303  0.33410856765677
 6 -6.06954408540854  3.34121507540754  0.78525650965097
 6 -6.49059704940494  4.78379901030103  0.90771853635364
 6 -7.74695529092909  4.82391227792779  0.36270317731773
 6 -8.15821637483748  3.47908820012001  0.11862220142014
 6 -5.63012879407941  5.81841293259326  1.42144867006701
 6 -8.55554476687669  5.92354742274227  0.38292831473147
 6 -8.17045624342434  7.24972105640564  0.05161089878988
 7 -9.19997503320332  0.66074255255526 -0.52651435673567
 6 -9.88890054905491  1.84452513511351 -0.70529565376538
 6 -11.23666840974098  1.46979797019702 -1.09575432503250
 6 -11.14912343304330  0.10367424472447 -1.27986725292529
 6 -9.90477036073607 -0.36178466656666 -0.86479578247825
 6 -12.22484072617262  2.55849813071307 -1.45030556145615
 6 -12.38158820452045 -0.68366942914291 -1.80515569276928
 6 -12.29822615461546 -1.04562844804480 -3.29777788318832
 7 -7.12844909700970 -1.39478884048405 -0.23277639633963
 6 -8.25413063536354 -2.28615455495550 -0.66137394329433
 6 -7.79309697719772 -3.67223140604060 -0.52267069606961
 6 -6.45192071407141 -3.55894020952095 -0.06254874697470
 6 -6.12289706790679 -2.17201335583558  0.08097971937194
 6 -8.61383172787279 -4.82647546644665 -0.76648619561956
 6 -5.39859639733973 -4.36607259255926  0.19720822072207
 8 -5.22737409920992 -5.55367802140214  0.28067410221022
 6 -4.23620703070307 -3.39470240434043  0.57462835483548
 6 -3.59689405360536 -3.70990707530753  1.94691587128713
 8 -3.89900355495550 -3.13969720252025  3.00782449774978
 8 -2.70220156805681 -4.76091424392439  1.68988707670767
 6 -2.08198083658366 -5.32000246954695  3.03830516751675
 6  2.88393216981698 -0.65517477517752 -1.09305468036804
 6  4.17583090549055 -0.38377222662266 -0.50972350105010
 6  5.12308591599160  0.40932425692569 -0.91607150735074
 6  5.03631104770477  1.18170270657066 -2.11950904200420
 6  6.53928038563856  0.50496930383038 -0.17215390159016
 6  7.67262500140014 -0.15423730563056 -0.90955062376238
 6  9.01722080448045 -0.03887362086209 -0.15411800600060
 6  10.22132302530253 -0.51441854015402 -0.89145553995400
 6  10.17627481368137 -1.98405774067407 -1.42988464996500
 6  11.44622573967397 -0.22088297889789 -0.02757255855586
 6  12.73221039003900 -0.47833434933493 -0.72738327812781
 6  13.98507419521952 -0.17109387258726  0.13938115111511
 6  15.23595893989399 -0.29163177487749 -0.50398344864486
 6  15.71277537973798 -1.64442722852285 -0.99594687448745
 6  16.42357561156116  0.37905229132913  0.36932611731173
 6  17.75279098339834  0.56342446824682 -0.12122040194019
 6  18.76818221772177  1.35695754255426  0.76542890459046
 6  20.24103178297830  1.33707945254525  0.10902050565057
 6  20.26774700360036  2.24565021302130 -1.12612843424342
 6  21.25212308640864  1.79938430783078  1.21550825242524
 1 -4.26656691519152  3.56473485518552  1.94754927592759
 1 -10.27616136783678  3.81148873277328 -0.34158846144614
 1 -10.35395465726573 -2.39827988268827 -1.33959750725073
 1 -2.64030272097210 -1.40817048074807  2.04905214381438
 1 -2.21420105810581  1.51900038863886  1.52988735523552
 1 -2.14340806410641  0.92726821582158  3.89211942534253
 1 -3.21419620582058  2.07014647124713  3.52519708720872
 1 -4.01973295449545  0.41129549724973  3.68166205070507
 1 -1.88446097299730 -1.60240616101610 -0.30769575557556
 1 -2.12072627482748  0.00190228152815 -0.78036313791379
 1 -0.43621071507151  0.56720464396440  1.18197044894489
 1 -0.38563451715172 -1.39767274267427  1.25740861676168
 1 -5.19607177487749  6.61677685278528  0.64453623582358
 1 -6.03700837113711  6.70951074987499  2.06718140734073
 1 -4.70248347714771  5.39407457885788  1.90132381108111
 1 -9.63059055795580  5.71222415851585  0.63424126862686
 1 -9.00526116651665  7.94182277177718  0.24019461276128
 1 -7.24448948554855  7.75693626282628 -0.25964043464346
 1 -11.99592500530053  2.94239154445445 -2.38838513691369
 1 -13.13043825732573  2.03495913401340 -1.20181370507051
 1 -12.17408436983698  3.49510259565957 -0.73819531753175
 1 -12.45680820892089 -1.67781017921792 -1.19365957385738
 1 -13.38262426602660 -0.10354416741674 -1.76219357635764
 1 -13.49851031723172 -1.31491273047305 -3.47599059675968
 1 -12.09007918191819 -0.12044076997700 -4.02385996099610
 1 -11.47529087668767 -1.93526647064706 -3.74990410591059
 1 -8.81679257515752 -4.75343819211921 -1.92931051245124
 1 -7.97322102310231 -5.74188429662966 -0.32248647674767
 1 -9.46715888168817 -4.85487227422742 -0.05426368256826
 1 -3.42907303930393 -3.80952253675368 -0.11349800280028
 1 -1.37161825182518 -4.73634201150115  3.64141082808281
 1 -2.81496668406841 -5.38296893929393  3.59965718781878
 1 -1.60156158265827 -6.29562373947395  2.60253695659566
 1  2.62398706980698 -1.75750544044404 -1.49757383368337
 1  2.43375507570757 -0.15633271487149 -2.05199721952195
 1  4.41973119741974 -0.83187119331933  0.51154353055306
 1  4.23405434173417  1.32003309960996 -2.66168951125112
 1  5.31510480888089  2.24249864006401 -2.02497685228523
 1  5.75400072287229  0.85744607480748 -2.84439573887389
 1  6.76469949324932  1.51225745344534  0.23103060076008
 1  6.25197854585458  0.22026877797780  0.77762876997700
 1  7.51782552465247 -1.19540061176118 -0.99851398009801
 1  7.80113164416442  0.25270214671467 -1.99537968486849
 1  9.18718481568157  0.95532814931493  0.31928589108911
 1  8.76568439123912 -0.63781213661366  0.62256687528753
 1  10.31605331683168  0.15089985628563 -1.65572940354035
 1  9.18358485488549 -2.18289533383338 -1.97587254845485
 1  11.08688177287729 -2.18978549114911 -2.06254244024402
 1  10.04833230683068 -2.65619724232423 -0.56813890459046
 1  11.28185294749475  0.79622402990299  0.37052901630163
 1  11.39305971567157 -0.78951128922892  1.00527800080008
 1  12.77663339903990 -1.57854471587159 -0.91418975387539
 1  12.59289819581958 -0.04800532153215 -1.78405676947695
 1  14.05041654485449  0.79030228572857  0.41713837433743
 1  14.00703679397940 -0.69915235253525  1.09495466516652
 1  15.31888428052805  0.18498835923592 -1.36538619811981
 1  15.65891789278928 -2.34635136103610 -0.09504710231023
 1  14.89197672947295 -2.05592378597860 -1.61097881828183
 1  16.55076313491349 -1.89160308890889 -1.48870097889789
 1  16.11074628432843  1.40386945964596  0.67459088008801
 1  16.50457215921592 -0.17071346704670  1.46010894259426
 1  18.34531372327233 -0.47974493829383 -0.19795580318032
 1  17.78372845404541  1.23478473697370 -1.15287877177718
 1  18.69643832663266  2.48623052265226  0.93688878977898
 1  18.82209848724872  0.77972158345835  1.72599895149515
 1  20.42595266196620  0.23865030083008 -0.06857910751075
 1  19.93936076937694  3.33260224512451 -0.89407967746775
 1  21.19947606150615  2.40870674857486 -1.59014026802680
 1  19.59244007720772  1.98232963526353 -1.90050047334733
 1  21.21632164746475  1.12707201100110  2.12137157875788
 1  22.30414505500550  1.67850638183818  0.77524179037904
 1  21.34994752735274  2.90176385258526  1.58195412661266

