%nproc=4
%Mem=2GB
# td=(NStates=1) CAM-B3LYP/6-31G(d,p) 

TD

0 1
12 -7.17250892019202  0.59580782148215  0.11493954255426
 6 -4.90301918301830 -1.90405251655166  0.59508514341434
 6 -4.87978728502850  2.86627095439544  1.17064052125212
 6 -9.47066165496549  3.10753315271527 -0.32680401340134
 6 -9.53912494009401 -1.74969514451445 -0.84701281628163
 7 -5.07930071167117  0.47010827132713  0.78074559495950
 6 -4.30672827812781 -0.64356497689769  0.72014391719172
 6 -2.95674663586359 -0.32341761386139  1.26001144234423
 6 -3.02441273047305  1.09400053255326  1.73130593699370
 6 -4.39874796149615  1.58275865626563  1.20315657685769
 6 -2.90297808880888  1.26744323162316  3.19492301840184
 6 -2.00636491739174 -0.50314432453245 -0.07945862006201
 6 -0.55174342834283 -0.21662989438944  0.37035561846185
 6  0.46915629402940 -0.56315974807481 -0.70751240304030
 8  0.27450800050005 -0.97840924472447 -1.82536181648165
 8  1.73932095709571 -0.47315222202220 -0.18897311741174
 7 -7.08838644714471  2.53862526982698  0.22039719651965
 6 -6.09247637863786  3.36548750265027  0.80032801680168
 6 -6.54474246394640  4.76106673707371  0.87942570707071
 6 -7.79348994439444  4.80414030073007  0.47171407840784
 6 -8.10706125932593  3.44513480478048  0.06125646484648
 6 -5.58596437763776  5.80508159945995  1.43840036523652
 6 -8.67235644804481  5.97673274127413  0.37204722662266
 6 -8.25010420822082  7.29695577987799  0.28590432813281
 7 -9.07653268896890  0.65913239153915 -0.64506621192119
 6 -9.91870352935294  1.76924760736074 -0.68191331553155
 6 -11.21565630853085  1.41435242564256 -1.15856060566057
 6 -11.18027654835483  0.10292416971697 -1.31541080728073
 6 -9.88425830953095 -0.31500998909891 -0.91304060696070
 6 -12.30949919201920  2.34846712761276 -1.46619715061506
 6 -12.34298434413441 -0.82536359855986 -1.79258443564356
 6 -12.21991832383238 -1.22751663686369 -3.28664677007701
 7 -7.22697894999500 -1.40048941054105 -0.13666678537854
 6 -8.26569179147915 -2.24607054655466 -0.42629043494349
 6 -7.86206387388739 -3.60989517241724 -0.42100052905291
 6 -6.48044356635664 -3.54359867536754  0.00311781968197
 6 -6.23870864906491 -2.19150530503050  0.12692431383138
 6 -8.58231857655766 -4.88643146204620 -0.77894744174417
 6 -5.30811734943494 -4.29908589388939  0.24240274017402
 8 -5.07319868166817 -5.47039969356936  0.16202223702370
 6 -4.13954736473647 -3.26789972407241  0.55611650365037
 6 -3.45513987818782 -3.72442852745275  1.86227740744074
 8 -3.81813546814681 -3.13851708450845  2.92359607490749
 8 -2.63776512441244 -4.71577973047305  1.72966105410541
 6 -2.19629226772677 -5.36211668096810  2.95788712571257
 6  2.79152292889289 -0.70608986668667 -1.10436581148115
 6  4.11544486688669 -0.32446629602960 -0.48667119581958
 6  5.15025863326333  0.41253457795780 -0.96639653985399
 6  5.08386580318032  1.12638717501750 -2.24484157525753
 6  6.41521797939794  0.43991279817982 -0.14706139233923
 6  7.62991072997300 -0.16378826072607 -0.95249491819182
 6  8.82218130053005 -0.27935766926693 -0.05021761596160
 6  10.13872476547655 -0.58121521982198 -0.83289968436844
 6  10.04379156535654 -1.96528586348635 -1.39772143364336
 6  11.34825594269427 -0.31769265986599  0.03569376807681
 6  12.79290645964596 -0.50893740964096 -0.72630317011701
 6  13.93279896769677  0.08960219701970  0.12336954995500
 6  15.32745808980898 -0.15663827552755 -0.51412446274627
 6  15.65109921212121 -1.62270505630563 -0.95379265906591
 6  16.46461971597159  0.37957234333433  0.42782196689669
 6  17.84998070237024  0.47255538133813 -0.22280055995600
 6  18.87527292679268  1.07601944874487  0.67792015371537
 6  20.42392007180718  1.35427117171717  0.21158076167617
 6  20.47980820972097  2.25090073807381 -0.99745556695670
 6  21.23546142024203  1.82339670907091  1.35338203980398
 1 -4.23513377187719  3.58594697639764  1.70201472247225
 1 -10.03593734543454  3.89296688058806 -0.41792609520952
 1 -10.39598886068607 -2.44115417011701 -1.23412696019602
 1 -2.62328101880188 -0.98898856255626  1.90344758335834
 1 -2.40057969596960  1.85866435503550  1.28101246774678
 1 -1.91040476377638  1.02333782278228  3.62218243164317
 1 -2.99313409960996  2.23000245684568  3.63402797029703
 1 -3.62244322552255  0.45583995169517  3.68145202970297
 1 -2.32758528542854 -1.54096001640164 -0.39127411341134
 1 -2.26351055325533  0.08579067036704 -0.90581568316832
 1 -0.33523061706171  0.82112003550355  0.70029228112811
 1 -0.37903385708571 -0.72147512291229  1.45321819771977
 1 -5.09022118981898  6.33354852995300  0.65199698189819
 1 -6.17901257155716  6.64383418221822  2.03733842304231
 1 -4.84281751055105  5.40124529592959  2.14641832053205
 1 -9.73093059195920  5.92653558965897  0.76807465196520
 1 -8.99029967036704  8.07997658715871  0.12106269956996
 1 -7.23710874747475  7.53927449664967  0.17095262466247
 1 -12.02502791559156  3.12758006330633 -2.07786408480848
 1 -13.10861607510751  1.80380601870187 -2.02133565726573
 1 -12.73115007640764  2.83301638703870 -0.38763026102610
 1 -12.33161568966897 -1.64655705390539 -1.04162437033703
 1 -13.15192119571957 -0.31536534953495 -1.53545090209021
 1 -12.97815828202820 -1.86439767896790 -3.53692669036904
 1 -12.45703587758776 -0.24272299819982 -3.85833340834083
 1 -11.26049939753976 -1.67329027302730 -3.58685780128013
 1 -8.96223711961196 -4.94602745104510 -1.81654923632363
 1 -7.71860556155616 -5.69188929712971 -0.57655188328833
 1 -9.52860502630263 -5.17905469246925 -0.02912116831683
 1 -3.34921505350535 -3.38319990449045 -0.23193984698470
 1 -1.77071816181618 -4.66521489878988  3.58655534253425
 1 -2.84692988038804 -5.84931557395740  3.54661188328833
 1 -1.53884531103110 -6.11908608570857  2.75744244714471
 1  2.70227489858986 -1.89616930683068 -1.33870794709471
 1  2.44841654185419 -0.26362344394439 -2.09541156095610
 1  4.13526275057506 -0.76201420762076  0.50502287848785
 1  4.07170810711071  0.83626472277228 -2.78517185948595
 1  5.04786808520852  2.28030242044205 -1.96478083268327
 1  5.98329365216522  0.83056338653865 -2.93764506380638
 1  6.63741676497650  1.42203843154315  0.07071456915692
 1  6.36283963196320 -0.23706695559556  0.79076008310831
 1  7.42398614071407 -1.14091516321632 -1.43330745944594
 1  7.93032456345635  0.43664054055406 -1.73804395129513
 1  8.65378147534753  0.53922653915392  0.62238620112011
 1  8.73235105790579 -1.02115047044704  0.74501912051205
 1  10.37659937143714  0.18355312161216 -1.64483831443144
 1  9.05869236563656 -2.14501154545455 -1.92786774797480
 1  10.92244532923292 -2.06718323092309 -2.22794898089809
 1  10.18087556115612 -2.53421504410441 -0.46644873557356
 1  11.30436519871987  0.73831823932393  0.37721968536854
 1  11.31417182688269 -0.73975631373137  0.97731520452045
 1  13.00131586728673 -1.51572843424342 -1.21291962686269
 1  12.72098100410041  0.12330180918092 -1.49614797859786
 1  13.86896840004001  1.08208146364636  0.36917357785779
 1  13.95132122242224 -0.47131956925693  1.06472164186419
 1  15.39987237933793  0.50705056545655 -1.44767442694269
 1  15.42644464546455 -2.35671239713971 -0.09667726532653
 1  14.85367289908991 -2.11066926052605 -1.70747846824682
 1  16.61766982558256 -1.78208213681368 -1.32518462726273
 1  16.10364557425742  1.35682475517552  0.72788620962096
 1  16.47510921292129 -0.33150954665467  1.15537846954695
 1  18.31812100400040 -0.47140410421042 -0.44864087168717
 1  17.83301338253825  0.90861211971197 -1.30738422232223
 1  18.54302298509851  2.07081898149815  0.76177127802780
 1  18.88204448184818  0.60596420772077  1.65438178977898
 1  20.97096716341634  0.46709314511451  0.05825357575758
 1  19.92280911421142  3.22246123102310 -0.82205247474748
 1  21.42664877877788  2.62396827472747 -1.46961821582158
 1  19.84455528872887  1.80467186948695 -1.85417584088409
 1  21.06874688998900  1.15442474627463  2.12223166476648
 1  22.31252589308931  1.90818935013501  1.25159942614261
 1  20.98774130673067  2.80858453465347  1.87191312251225

