%nproc=4
%Mem=2GB
# td=(NStates=1) CAM-B3LYP/6-31G(d,p) 

TD

0 1
12 -7.14668633793379  0.62887112781278  0.08687673627363
 6 -4.86777565866587 -2.02000411171117  0.51344697959796
 6 -4.84842414871487  2.73160748804880  1.07073053025303
 6 -9.45006959575958  3.08450084948495 -0.30304163716372
 6 -9.52681370897090 -1.69649982498250 -0.89153726872687
 7 -5.14012679427943  0.34528578907891  0.77118463886389
 6 -4.33088069336934 -0.76225684608461  0.75064696749675
 6 -2.92921388258826 -0.42192746484648  1.19432487368737
 6 -3.04221451065107  1.06341747424742  1.66738954535454
 6 -4.45175326202620  1.44915529592959  1.21980824202420
 6 -2.92100989198920  1.25485197249725  3.22059558565857
 6 -1.90696497739774 -0.66013002310231  0.21019034483448
 6 -0.44179243324332 -0.56759499089909  0.59258784168417
 6  0.46665604400440 -0.64914834693469 -0.62996464826483
 8  0.11469201890189 -0.96811821562156 -1.76275555585559
 8  1.73502052705271 -0.53486839363936 -0.17046126622662
 7 -7.19359696819682  2.62469387668767  0.37831298809881
 6 -6.05774290529053  3.28694964886489  0.71381936593659
 6 -6.44726271597160  4.78682931333133  0.82964072857286
 6 -7.76920751615162  4.83313320002000  0.37023393039304
 6 -8.15319587278728  3.45459575087509  0.12703304250425
 6 -5.51378715991599  5.96924801610161  1.20969749494949
 6 -8.69415862826283  5.98050311831183  0.23250327222722
 6 -8.31126032383238  7.23705979027903  0.19004474217422
 7 -9.01490652635263  0.67559403770377 -0.66548825412541
 6 -9.79788144714471  1.85327601020102 -0.67418254245425
 6 -11.15961070397040  1.52486347674767 -1.10622537213721
 6 -11.17791631233123  0.18472234953495 -1.35232449864987
 6 -9.92588247194719 -0.38998748684868 -0.94039334223422
 6 -12.31970021212121  2.51366364726473 -1.25163569446945
 6 -12.40353039873987 -0.70309137133713 -1.59152432963296
 6 -12.52332866486649 -1.16418030323032 -3.11716982238224
 7 -7.24706095819582 -1.38547790939094 -0.03373649234923
 6 -8.23569879217922 -2.20824676417642 -0.53313111901190
 6 -7.88099576707671 -3.59646382928293 -0.56478490749075
 6 -6.49710523252325 -3.51010532603260 -0.14652714481448
 6 -6.16883166136614 -2.21409756425643  0.15601722312231
 6 -8.62174251895189 -4.82893571247125 -0.80362990999100
 6 -5.42582912061206 -4.35360134543454  0.23986248614861
 8 -5.28984034583458 -5.58150080368037  0.42670870567057
 6 -4.18919232923292 -3.40015294939494  0.43972486448645
 6 -3.45973033723372 -3.66715279987999  1.77892907260726
 8 -3.74224787938794 -3.16931016381638  2.85275899119912
 8 -2.55983733163316 -4.66820497299730  1.65093318131813
 6 -1.98313095159516 -5.14266473577358  2.85220655765577
 6  2.72055583218322 -0.75529478717872 -1.17446282118212
 6  4.08900222262226 -0.43501735113511 -0.50266279497950
 6  5.04096770417042  0.30310363486349 -0.91921182138214
 6  4.99302671927193  1.10068460476048 -2.18330542164216
 6  6.39804626222622  0.26164497139714 -0.23121980818082
 6  7.54037177607761 -0.24093597549755 -0.92092176087609
 6  8.94730381278128 -0.06970670417042 -0.19477207140714
 6  10.20051094409441 -0.41462856115612 -0.96910330473047
 6  10.21690887708771 -1.91917125202520 -1.37905956745675
 6  11.46383750085008 -0.06734762536254 -0.20656045734573
 6  12.84304147314731 -0.21424794069407 -0.84744528432843
 6  14.00383607140714  0.03319655645565  0.14035124812481
 6  15.40304564856486 -0.11257386908691 -0.61722477277728
 6  15.64639874207421 -1.58051083688369 -1.05193247304730
 6  16.44922817681768  0.42035642174217  0.35579476417642
 6  17.86122182648265  0.50422854865487 -0.17310559045905
 6  18.81770717021702  1.11990383718372  0.79556191789179
 6  20.30180786058606  1.20268601320132  0.40613021662166
 6  20.46393662256225  2.10379602760276 -0.86532235363536
 6  21.23035090919092  1.85005937533753  1.55051175277528
 1 -3.97826808530853  3.54667304900490  1.59168368936894
 1 -10.22860661236124  3.90103768766877 -0.65065936853685
 1 -10.19744900670067 -2.61873192789279 -1.15239878737874
 1 -2.67322601330133 -1.12202186588659  1.91902914151415
 1 -2.37762740074007  1.52479096769677  1.10944531103110
 1 -1.95459918321832  0.94024951395140  3.52136234963496
 1 -3.04638942514251  2.19417887448745  3.41774634213421
 1 -3.58623960516052  0.56616098379838  3.90904478897890
 1 -1.92327485438544 -1.75518143854385 -0.28408339433943
 1 -1.87947214941494 -0.17190509920992 -0.74614971657166
 1 -0.33971106510651  0.42405032853285  0.88761101300130
 1 -0.21947790149015 -0.94372734813481  1.51125400130013
 1 -5.11354352205221  6.32257743284328  0.14897667986799
 1 -6.37635230553055  6.68439823862386  1.55346003520352
 1 -4.71464469326933  5.99374454585459  2.09771345004500
 1 -9.80673817271727  5.65616855295530  0.42940078457846
 1 -8.98961960236024  8.14674326382638  0.16292688598860
 1 -7.29037407400740  7.31068163736374  0.02634816421642
 1 -12.05209062186219  3.58197550285029 -1.82226852525253
 1 -13.16296150965096  2.08551418951895 -1.73024654835484
 1 -12.56388334973497  2.93112619801980 -0.11188268626863
 1 -12.28306083418342 -1.45462786098610 -0.77686789468947
 1 -13.42568857245725 -0.17289110211021 -1.48423578057806
 1 -13.30318078427843 -1.91995323452345 -3.22608560626063
 1 -12.62393256725673 -0.27899662556256 -3.70870844584458
 1 -11.43501684928493 -1.57998094209421 -3.44262337783778
 1 -8.78076897279728 -5.12097494579458 -1.91579916131613
 1 -8.06212991399140 -5.60849095729573 -0.38926315441544
 1 -9.66636880268027 -4.79985677267727 -0.31363962016202
 1 -3.55185531753175 -3.61486307080708 -0.36341299429943
 1 -1.34204529452945 -4.30256863416342  3.25411209820982
 1 -2.84234942234223 -5.47662830523052  3.64540176227623
 1 -1.17249867636764 -5.95178935603560  2.70063676657666
 1  2.62238690979098 -1.95653534343434 -1.48553262956296
 1  2.54642634283428 -0.30823790539054 -2.13399541934193
 1  4.00242946724673 -1.09174718091809  0.42509488568857
 1  4.09767070337034  1.20817191349135 -2.73660700300030
 1  5.41572487088709  2.11570596079608 -2.07919227382738
 1  5.74774009680968  0.67814814501450 -2.94635593489349
 1  6.67964098739874  1.41740796849685  0.15770326802680
 1  6.17869121712171 -0.22925617451745  0.66882788988899
 1  7.55652939503950 -1.28193926562656 -1.06963109180918
 1  7.85258678967897  0.21948882538254 -1.87613776067607
 1  9.09703580078008  0.93527614411441  0.22296625912591
 1  8.92614043684368 -0.86280463586359  0.62742736133613
 1  9.94738645014501  0.27098186448645 -1.79931376197620
 1  9.25313180958096 -2.11861890619062 -2.01558651985199
 1  11.03270635533553 -2.40487700030003 -1.99701588758876
 1  10.07869534313431 -2.69452107470747 -0.51584367506751
 1  11.53541830403040  1.03084749224923  0.11820378377838
 1  11.34074448414841 -0.75616795489549  0.69975744874487
 1  13.01034677037704 -1.20847770917092 -1.27725606050605
 1  12.85256416241624  0.37054653365337 -1.85083344714471
 1  14.03815531873187  1.11560481598160  0.53401006150615
 1  13.83839993029303 -0.65065750305030  0.93010818051805
 1  15.45177756985699  0.68489835023502 -1.39022868236824
 1  15.49574157515752 -2.35297202310231 -0.27138473607361
 1  14.75329286108611 -1.77113530713071 -1.71623934433443
 1  16.68356641524153 -1.90236416501650 -1.52565467426743
 1  16.17150235993599  1.32429150185019  0.92014543554355
 1  16.33163486548655 -0.24721111681168  1.39017194889489
 1  18.26652584448445 -0.41877884168417 -0.54010001760176
 1  18.12739282048205  1.33088434693469 -1.04123760766077
 1  18.58401708450845  2.14603650325032  1.30906600750075
 1  19.07782405980598  0.35617922922292  1.79815616721672
 1  20.64894496119612  0.27897433323332  0.08496624702470
 1  20.09815664896490  3.21468045294529 -0.65007527702770
 1  21.43025913981398  2.22484836273627 -1.17765901990199
 1  19.77872870607061  1.71895329762976 -1.54894531783178
 1  21.08482849814981  1.16559586338634  2.39221866346635
 1  22.26645128562856  1.51815034623462  1.48493275947595
 1  21.08551108370837  3.05362903910391  1.56281221242124

